@relation Dataset

@attribute version {1.0.0,1.1.0,1.2.0,1.3.0,1.3.1,1.3.2,1.3.3,1.4.0,1.4.1,1.5.0,1.5.1,1.5.2,1.5.3,1.5.4}
@attribute classpath {src/java/org/apache/avro/AvroRuntimeException.java,src/java/org/apache/avro/AvroTypeException.java,src/java/org/apache/avro/Protocol.java,src/java/org/apache/avro/Schema.java,src/java/org/apache/avro/SchemaParseException.java,src/java/org/apache/avro/file/DataFileReader.java,src/java/org/apache/avro/file/DataFileWriter.java,src/java/org/apache/avro/file/SeekableFileInput.java,src/java/org/apache/avro/file/SeekableInput.java,src/java/org/apache/avro/generic/GenericArray.java,src/java/org/apache/avro/generic/GenericData.java,src/java/org/apache/avro/generic/GenericDatumReader.java,src/java/org/apache/avro/generic/GenericDatumWriter.java,src/java/org/apache/avro/generic/GenericFixed.java,src/java/org/apache/avro/generic/GenericRecord.java,src/java/org/apache/avro/generic/GenericRequestor.java,src/java/org/apache/avro/generic/GenericResponder.java,src/java/org/apache/avro/io/BinaryDecoder.java,src/java/org/apache/avro/io/BinaryEncoder.java,src/java/org/apache/avro/io/BlockingBinaryEncoder.java,src/java/org/apache/avro/io/DatumReader.java,src/java/org/apache/avro/io/DatumWriter.java,src/java/org/apache/avro/io/Decoder.java,src/java/org/apache/avro/io/Encoder.java,src/java/org/apache/avro/io/ParsingTable.java,src/java/org/apache/avro/io/ResolvingDecoder.java,src/java/org/apache/avro/io/ResolvingTable.java,src/java/org/apache/avro/io/ValidatingDecoder.java,src/java/org/apache/avro/io/ValidatingEncoder.java,src/java/org/apache/avro/ipc/AvroRemoteException.java,src/java/org/apache/avro/ipc/ByteBufferInputStream.java,src/java/org/apache/avro/ipc/ByteBufferOutputStream.java,src/java/org/apache/avro/ipc/Requestor.java,src/java/org/apache/avro/ipc/Responder.java,src/java/org/apache/avro/ipc/SocketServer.java,src/java/org/apache/avro/ipc/SocketTransceiver.java,src/java/org/apache/avro/ipc/Transceiver.java,src/java/org/apache/avro/reflect/FixedSize.java,src/java/org/apache/avro/reflect/ReflectData.java,src/java/org/apache/avro/reflect/ReflectDatumReader.java,src/java/org/apache/avro/reflect/ReflectDatumWriter.java,src/java/org/apache/avro/reflect/ReflectRequestor.java,src/java/org/apache/avro/reflect/ReflectResponder.java,src/java/org/apache/avro/specific/ProtocolTask.java,src/java/org/apache/avro/specific/SchemaTask.java,src/java/org/apache/avro/specific/SpecificCompiler.java,src/java/org/apache/avro/specific/SpecificDatumReader.java,src/java/org/apache/avro/specific/SpecificDatumWriter.java,src/java/org/apache/avro/specific/SpecificExceptionBase.java,src/java/org/apache/avro/specific/SpecificFixed.java,src/java/org/apache/avro/specific/SpecificRecord.java,src/java/org/apache/avro/specific/SpecificRecordBase.java,src/java/org/apache/avro/specific/SpecificRequestor.java,src/java/org/apache/avro/specific/SpecificResponder.java,src/java/org/apache/avro/util/Utf8.java,src/java/org/apache/avro/generic/GenericContainer.java,src/java/org/apache/avro/io/BinaryData.java,src/java/org/apache/avro/io/JsonDecoder.java,src/java/org/apache/avro/io/JsonEncoder.java,src/java/org/apache/avro/io/ParsingDecoder.java,src/java/org/apache/avro/io/ParsingEncoder.java,src/java/org/apache/avro/io/parsing/JsonGrammarGenerator.java,src/java/org/apache/avro/io/parsing/Parser.java,src/java/org/apache/avro/io/parsing/ResolvingGrammarGenerator.java,src/java/org/apache/avro/io/parsing/SkipParser.java,src/java/org/apache/avro/io/parsing/Symbol.java,src/java/org/apache/avro/io/parsing/ValidatingGrammarGenerator.java,src/java/org/apache/avro/ipc/RPCContext.java,src/java/org/apache/avro/ipc/RPCPlugin.java,src/java/org/apache/avro/specific/SpecificData.java,src/java/org/apache/avro/file/DataFileConstants.java,src/java/org/apache/avro/ipc/DatagramServer.java,src/java/org/apache/avro/ipc/DatagramTransceiver.java,src/java/org/apache/avro/ipc/HttpServer.java,src/java/org/apache/avro/ipc/HttpTransceiver.java,src/java/org/apache/avro/ipc/ResponderServlet.java,src/java/org/apache/avro/ipc/Server.java,lang/java/src/java/org/apache/avro/SchemaParseException.java,lang/java/src/java/org/apache/avro/AvroRuntimeException.java,lang/java/src/java/org/apache/avro/Schema.java,lang/java/src/java/org/apache/avro/ipc/stats/StatsServlet.java,lang/java/src/java/org/apache/avro/ipc/stats/FloatHistogram.java,lang/java/src/java/org/apache/avro/ipc/stats/Histogram.java,lang/java/src/java/org/apache/avro/ipc/stats/StatsPlugin.java,lang/java/src/java/org/apache/avro/ipc/stats/Stopwatch.java,lang/java/src/java/org/apache/avro/ipc/ByteBufferOutputStream.java,lang/java/src/java/org/apache/avro/ipc/RPCContext.java,lang/java/src/java/org/apache/avro/ipc/Server.java,lang/java/src/java/org/apache/avro/ipc/AvroRemoteException.java,lang/java/src/java/org/apache/avro/ipc/Transceiver.java,lang/java/src/java/org/apache/avro/ipc/HttpTransceiver.java,lang/java/src/java/org/apache/avro/ipc/DatagramServer.java,lang/java/src/java/org/apache/avro/ipc/RPCPlugin.java,lang/java/src/java/org/apache/avro/ipc/Responder.java,lang/java/src/java/org/apache/avro/ipc/Requestor.java,lang/java/src/java/org/apache/avro/ipc/LocalTransceiver.java,lang/java/src/java/org/apache/avro/ipc/DatagramTransceiver.java,lang/java/src/java/org/apache/avro/ipc/SocketTransceiver.java,lang/java/src/java/org/apache/avro/ipc/ByteBufferInputStream.java,lang/java/src/java/org/apache/avro/ipc/SocketServer.java,lang/java/src/java/org/apache/avro/ipc/ResponderServlet.java,lang/java/src/java/org/apache/avro/ipc/HttpServer.java,lang/java/src/java/org/apache/avro/specific/SpecificDatumWriter.java,lang/java/src/java/org/apache/avro/specific/FixedSize.java,lang/java/src/java/org/apache/avro/specific/SpecificCompiler.java,lang/java/src/java/org/apache/avro/specific/SpecificExceptionBase.java,lang/java/src/java/org/apache/avro/specific/SpecificRecordBase.java,lang/java/src/java/org/apache/avro/specific/SchemaTask.java,lang/java/src/java/org/apache/avro/specific/SpecificRecord.java,lang/java/src/java/org/apache/avro/specific/ProtocolTask.java,lang/java/src/java/org/apache/avro/specific/SpecificFixed.java,lang/java/src/java/org/apache/avro/specific/SpecificRequestor.java,lang/java/src/java/org/apache/avro/specific/SpecificData.java,lang/java/src/java/org/apache/avro/specific/SpecificDatumReader.java,lang/java/src/java/org/apache/avro/specific/SpecificResponder.java,lang/java/src/java/org/apache/avro/io/ValidatingDecoder.java,lang/java/src/java/org/apache/avro/io/BinaryEncoder.java,lang/java/src/java/org/apache/avro/io/ValidatingEncoder.java,lang/java/src/java/org/apache/avro/io/DirectBinaryDecoder.java,lang/java/src/java/org/apache/avro/io/ParsingEncoder.java,lang/java/src/java/org/apache/avro/io/BlockingBinaryEncoder.java,lang/java/src/java/org/apache/avro/io/parsing/Parser.java,lang/java/src/java/org/apache/avro/io/parsing/ValidatingGrammarGenerator.java,lang/java/src/java/org/apache/avro/io/parsing/SkipParser.java,lang/java/src/java/org/apache/avro/io/parsing/Symbol.java,lang/java/src/java/org/apache/avro/io/parsing/ResolvingGrammarGenerator.java,lang/java/src/java/org/apache/avro/io/parsing/JsonGrammarGenerator.java,lang/java/src/java/org/apache/avro/io/DecoderFactory.java,lang/java/src/java/org/apache/avro/io/JsonDecoder.java,lang/java/src/java/org/apache/avro/io/Encoder.java,lang/java/src/java/org/apache/avro/io/Decoder.java,lang/java/src/java/org/apache/avro/io/DatumWriter.java,lang/java/src/java/org/apache/avro/io/ResolvingDecoder.java,lang/java/src/java/org/apache/avro/io/BinaryData.java,lang/java/src/java/org/apache/avro/io/JsonEncoder.java,lang/java/src/java/org/apache/avro/io/DatumReader.java,lang/java/src/java/org/apache/avro/io/ParsingDecoder.java,lang/java/src/java/org/apache/avro/io/BinaryDecoder.java,lang/java/src/java/org/apache/avro/generic/GenericArray.java,lang/java/src/java/org/apache/avro/generic/GenericDatumReader.java,lang/java/src/java/org/apache/avro/generic/IndexedRecord.java,lang/java/src/java/org/apache/avro/generic/GenericFixed.java,lang/java/src/java/org/apache/avro/generic/GenericRequestor.java,lang/java/src/java/org/apache/avro/generic/GenericDatumWriter.java,lang/java/src/java/org/apache/avro/generic/GenericResponder.java,lang/java/src/java/org/apache/avro/generic/GenericContainer.java,lang/java/src/java/org/apache/avro/generic/GenericRecord.java,lang/java/src/java/org/apache/avro/generic/GenericData.java,lang/java/src/java/org/apache/avro/AvroTypeException.java,lang/java/src/java/org/apache/avro/tool/JsonToBinaryFragmentTool.java,lang/java/src/java/org/apache/avro/tool/DataFileReadTool.java,lang/java/src/java/org/apache/avro/tool/RpcSendTool.java,lang/java/src/java/org/apache/avro/tool/Tool.java,lang/java/src/java/org/apache/avro/tool/GenAvroTool.java,lang/java/src/java/org/apache/avro/tool/RpcReceiveTool.java,lang/java/src/java/org/apache/avro/tool/DataFileGetSchemaTool.java,lang/java/src/java/org/apache/avro/tool/Main.java,lang/java/src/java/org/apache/avro/tool/Util.java,lang/java/src/java/org/apache/avro/tool/BinaryFragmentToJsonTool.java,lang/java/src/java/org/apache/avro/tool/DataFileWriteTool.java,lang/java/src/java/org/apache/avro/util/Utf8.java,lang/java/src/java/org/apache/avro/file/LengthLimitedInputStream.java,lang/java/src/java/org/apache/avro/file/Codec.java,lang/java/src/java/org/apache/avro/file/DeflateCodec.java,lang/java/src/java/org/apache/avro/file/DataFileWriter.java,lang/java/src/java/org/apache/avro/file/SeekableFileInput.java,lang/java/src/java/org/apache/avro/file/CodecFactory.java,lang/java/src/java/org/apache/avro/file/DataFileConstants.java,lang/java/src/java/org/apache/avro/file/SeekableInput.java,lang/java/src/java/org/apache/avro/file/NullCodec.java,lang/java/src/java/org/apache/avro/file/DataFileReader.java,lang/java/src/java/org/apache/avro/file/DataFileStream.java,lang/java/src/java/org/apache/avro/reflect/InduceSchemaTool.java,lang/java/src/java/org/apache/avro/reflect/ReflectData.java,lang/java/src/java/org/apache/avro/reflect/ReflectRequestor.java,lang/java/src/java/org/apache/avro/reflect/Union.java,lang/java/src/java/org/apache/avro/reflect/ReflectResponder.java,lang/java/src/java/org/apache/avro/reflect/Stringable.java,lang/java/src/java/org/apache/avro/reflect/ReflectDatumReader.java,lang/java/src/java/org/apache/avro/reflect/ReflectDatumWriter.java,lang/java/src/java/org/apache/avro/Protocol.java,lang/java/src/java/org/apache/avro/reflect/Nullable.java,lang/java/src/java/org/apache/avro/ipc/stats/StatsServer.java,lang/java/src/java/org/apache/avro/ipc/stats/StaticServlet.java,lang/java/src/java/org/apache/avro/ipc/stats/IntegerHistogram.java,lang/java/src/java/org/apache/avro/ipc/NettyServer.java,lang/java/src/java/org/apache/avro/ipc/trace/Trace.java,lang/java/src/java/org/apache/avro/ipc/trace/TraceClientServlet.java,lang/java/src/java/org/apache/avro/ipc/trace/TracePlugin.java,lang/java/src/java/org/apache/avro/ipc/trace/StaticServlet.java,lang/java/src/java/org/apache/avro/ipc/trace/SpanStorage.java,lang/java/src/java/org/apache/avro/ipc/trace/Util.java,lang/java/src/java/org/apache/avro/ipc/trace/TraceCollection.java,lang/java/src/java/org/apache/avro/ipc/trace/SpanAggregator.java,lang/java/src/java/org/apache/avro/ipc/trace/TraceNode.java,lang/java/src/java/org/apache/avro/ipc/trace/FileSpanStorage.java,lang/java/src/java/org/apache/avro/ipc/trace/TracePluginConfiguration.java,lang/java/src/java/org/apache/avro/ipc/trace/InMemorySpanStorage.java,lang/java/src/java/org/apache/avro/ipc/NettyTransceiver.java,lang/java/src/java/org/apache/avro/ipc/NettyTransportCodec.java,lang/java/src/java/org/apache/avro/mapred/HadoopReducer.java,lang/java/src/java/org/apache/avro/mapred/tether/TetherReducer.java,lang/java/src/java/org/apache/avro/mapred/tether/TetherPartitioner.java,lang/java/src/java/org/apache/avro/mapred/tether/TetherKeyComparator.java,lang/java/src/java/org/apache/avro/mapred/tether/TetherRecordReader.java,lang/java/src/java/org/apache/avro/mapred/tether/TetherJob.java,lang/java/src/java/org/apache/avro/mapred/tether/TetherOutputFormat.java,lang/java/src/java/org/apache/avro/mapred/tether/TetherInputFormat.java,lang/java/src/java/org/apache/avro/mapred/tether/TetherMapRunner.java,lang/java/src/java/org/apache/avro/mapred/tether/TetherOutputService.java,lang/java/src/java/org/apache/avro/mapred/tether/TetheredProcess.java,lang/java/src/java/org/apache/avro/mapred/tether/TetherKeySerialization.java,lang/java/src/java/org/apache/avro/mapred/tether/TetherData.java,lang/java/src/java/org/apache/avro/mapred/AvroWrapper.java,lang/java/src/java/org/apache/avro/mapred/AvroJob.java,lang/java/src/java/org/apache/avro/mapred/AvroValue.java,lang/java/src/java/org/apache/avro/mapred/AvroUtf8InputFormat.java,lang/java/src/java/org/apache/avro/mapred/AvroSerialization.java,lang/java/src/java/org/apache/avro/mapred/AvroInputFormat.java,lang/java/src/java/org/apache/avro/mapred/AvroMapper.java,lang/java/src/java/org/apache/avro/mapred/AvroRecordReader.java,lang/java/src/java/org/apache/avro/mapred/AvroReducer.java,lang/java/src/java/org/apache/avro/mapred/Pair.java,lang/java/src/java/org/apache/avro/mapred/FsInput.java,lang/java/src/java/org/apache/avro/mapred/AvroKeyComparator.java,lang/java/src/java/org/apache/avro/mapred/HadoopCombiner.java,lang/java/src/java/org/apache/avro/mapred/HadoopMapper.java,lang/java/src/java/org/apache/avro/mapred/AvroKey.java,lang/java/src/java/org/apache/avro/mapred/HadoopReducerBase.java,lang/java/src/java/org/apache/avro/mapred/AvroCollector.java,lang/java/src/java/org/apache/avro/mapred/AvroOutputFormat.java,lang/java/src/java/org/apache/avro/generic/GenericEnumSymbol.java,lang/java/src/java/org/apache/avro/tool/ToTextTool.java,lang/java/src/java/org/apache/avro/tool/IdlTool.java,lang/java/src/java/org/apache/avro/tool/FromTextTool.java,lang/java/src/java/org/apache/avro/util/WeakIdentityHashMap.java,lang/java/src/java/org/apache/avro/ipc/SaslSocketServer.java,lang/java/src/java/org/apache/avro/ipc/SaslSocketTransceiver.java,lang/java/src/java/org/apache/avro/mapred/SequenceFileReader.java,lang/java/src/java/org/apache/avro/mapred/SequenceFileInputFormat.java,lang/java/src/java/org/apache/avro/mapred/SequenceFileRecordReader.java,lang/java/src/java/org/apache/avro/file/FileReader.java,lang/java/mapred/src/main/java/org/apache/avro/mapred/AvroReducer.java,lang/java/mapred/src/main/java/org/apache/avro/mapred/SequenceFileInputFormat.java,lang/java/mapred/src/main/java/org/apache/avro/mapred/SequenceFileReader.java,lang/java/mapred/src/main/java/org/apache/avro/mapred/AvroValue.java,lang/java/mapred/src/main/java/org/apache/avro/mapred/AvroKey.java,lang/java/mapred/src/main/java/org/apache/avro/mapred/AvroOutputFormat.java,lang/java/mapred/src/main/java/org/apache/avro/mapred/AvroRecordReader.java,lang/java/mapred/src/main/java/org/apache/avro/mapred/AvroSerialization.java,lang/java/mapred/src/main/java/org/apache/avro/mapred/AvroCollector.java,lang/java/mapred/src/main/java/org/apache/avro/mapred/HadoopMapper.java,lang/java/mapred/src/main/java/org/apache/avro/mapred/FsInput.java,lang/java/mapred/src/main/java/org/apache/avro/mapred/AvroKeyComparator.java,lang/java/mapred/src/main/java/org/apache/avro/mapred/AvroMapper.java,lang/java/mapred/src/main/java/org/apache/avro/mapred/AvroUtf8InputFormat.java,lang/java/mapred/src/main/java/org/apache/avro/mapred/AvroWrapper.java,lang/java/mapred/src/main/java/org/apache/avro/mapred/HadoopReducerBase.java,lang/java/mapred/src/main/java/org/apache/avro/mapred/AvroInputFormat.java,lang/java/mapred/src/main/java/org/apache/avro/mapred/tether/TetherKeySerialization.java,lang/java/mapred/src/main/java/org/apache/avro/mapred/tether/TetheredProcess.java,lang/java/mapred/src/main/java/org/apache/avro/mapred/tether/TetherMapRunner.java,lang/java/mapred/src/main/java/org/apache/avro/mapred/tether/TetherOutputService.java,lang/java/mapred/src/main/java/org/apache/avro/mapred/tether/TetherRecordReader.java,lang/java/mapred/src/main/java/org/apache/avro/mapred/tether/TetherReducer.java,lang/java/mapred/src/main/java/org/apache/avro/mapred/tether/TetherInputFormat.java,lang/java/mapred/src/main/java/org/apache/avro/mapred/tether/TetherOutputFormat.java,lang/java/mapred/src/main/java/org/apache/avro/mapred/tether/TetherData.java,lang/java/mapred/src/main/java/org/apache/avro/mapred/tether/TetherKeyComparator.java,lang/java/mapred/src/main/java/org/apache/avro/mapred/tether/TetherJob.java,lang/java/mapred/src/main/java/org/apache/avro/mapred/tether/TetherPartitioner.java,lang/java/mapred/src/main/java/org/apache/avro/mapred/HadoopCombiner.java,lang/java/mapred/src/main/java/org/apache/avro/mapred/HadoopReducer.java,lang/java/mapred/src/main/java/org/apache/avro/mapred/Pair.java,lang/java/mapred/src/main/java/org/apache/avro/mapred/SequenceFileRecordReader.java,lang/java/mapred/src/main/java/org/apache/avro/mapred/AvroJob.java,lang/java/avro/src/main/java/org/apache/avro/Protocol.java,lang/java/avro/src/main/java/org/apache/avro/specific/SpecificDatumWriter.java,lang/java/avro/src/main/java/org/apache/avro/specific/SpecificData.java,lang/java/avro/src/main/java/org/apache/avro/specific/SpecificDatumReader.java,lang/java/avro/src/main/java/org/apache/avro/specific/FixedSize.java,lang/java/avro/src/main/java/org/apache/avro/specific/SpecificRecord.java,lang/java/avro/src/main/java/org/apache/avro/specific/SpecificExceptionBase.java,lang/java/avro/src/main/java/org/apache/avro/specific/SpecificFixed.java,lang/java/avro/src/main/java/org/apache/avro/specific/SpecificRecordBase.java,lang/java/avro/src/main/java/org/apache/avro/UnresolvedUnionException.java,lang/java/avro/src/main/java/org/apache/avro/AvroRemoteException.java,lang/java/avro/src/main/java/org/apache/avro/Schema.java,lang/java/avro/src/main/java/org/apache/avro/reflect/Nullable.java,lang/java/avro/src/main/java/org/apache/avro/reflect/ReflectDatumWriter.java,lang/java/avro/src/main/java/org/apache/avro/reflect/Stringable.java,lang/java/avro/src/main/java/org/apache/avro/reflect/ReflectDatumReader.java,lang/java/avro/src/main/java/org/apache/avro/reflect/ReflectData.java,lang/java/avro/src/main/java/org/apache/avro/reflect/Union.java,lang/java/avro/src/main/java/org/apache/avro/io/ParsingEncoder.java,lang/java/avro/src/main/java/org/apache/avro/io/EncoderFactory.java,lang/java/avro/src/main/java/org/apache/avro/io/Decoder.java,lang/java/avro/src/main/java/org/apache/avro/io/parsing/ResolvingGrammarGenerator.java,lang/java/avro/src/main/java/org/apache/avro/io/parsing/ValidatingGrammarGenerator.java,lang/java/avro/src/main/java/org/apache/avro/io/parsing/SkipParser.java,lang/java/avro/src/main/java/org/apache/avro/io/parsing/Symbol.java,lang/java/avro/src/main/java/org/apache/avro/io/parsing/JsonGrammarGenerator.java,lang/java/avro/src/main/java/org/apache/avro/io/parsing/Parser.java,lang/java/avro/src/main/java/org/apache/avro/io/DirectBinaryDecoder.java,lang/java/avro/src/main/java/org/apache/avro/io/JsonEncoder.java,lang/java/avro/src/main/java/org/apache/avro/io/ValidatingEncoder.java,lang/java/avro/src/main/java/org/apache/avro/io/ValidatingDecoder.java,lang/java/avro/src/main/java/org/apache/avro/io/DatumReader.java,lang/java/avro/src/main/java/org/apache/avro/io/DatumWriter.java,lang/java/avro/src/main/java/org/apache/avro/io/BlockingBinaryEncoder.java,lang/java/avro/src/main/java/org/apache/avro/io/ParsingDecoder.java,lang/java/avro/src/main/java/org/apache/avro/io/DirectBinaryEncoder.java,lang/java/avro/src/main/java/org/apache/avro/io/BinaryDecoder.java,lang/java/avro/src/main/java/org/apache/avro/io/BinaryData.java,lang/java/avro/src/main/java/org/apache/avro/io/BinaryEncoder.java,lang/java/avro/src/main/java/org/apache/avro/io/Encoder.java,lang/java/avro/src/main/java/org/apache/avro/io/ResolvingDecoder.java,lang/java/avro/src/main/java/org/apache/avro/io/BufferedBinaryEncoder.java,lang/java/avro/src/main/java/org/apache/avro/io/DecoderFactory.java,lang/java/avro/src/main/java/org/apache/avro/io/JsonDecoder.java,lang/java/avro/src/main/java/org/apache/avro/SchemaParseException.java,lang/java/avro/src/main/java/org/apache/avro/generic/GenericRecord.java,lang/java/avro/src/main/java/org/apache/avro/generic/GenericData.java,lang/java/avro/src/main/java/org/apache/avro/generic/GenericEnumSymbol.java,lang/java/avro/src/main/java/org/apache/avro/generic/GenericContainer.java,lang/java/avro/src/main/java/org/apache/avro/generic/GenericFixed.java,lang/java/avro/src/main/java/org/apache/avro/generic/GenericDatumReader.java,lang/java/avro/src/main/java/org/apache/avro/generic/GenericDatumWriter.java,lang/java/avro/src/main/java/org/apache/avro/generic/GenericArray.java,lang/java/avro/src/main/java/org/apache/avro/generic/IndexedRecord.java,lang/java/avro/src/main/java/org/apache/avro/file/DataFileWriter.java,lang/java/avro/src/main/java/org/apache/avro/file/DataFileStream.java,lang/java/avro/src/main/java/org/apache/avro/file/NullCodec.java,lang/java/avro/src/main/java/org/apache/avro/file/SeekableFileInput.java,lang/java/avro/src/main/java/org/apache/avro/file/Codec.java,lang/java/avro/src/main/java/org/apache/avro/file/DeflateCodec.java,lang/java/avro/src/main/java/org/apache/avro/file/CodecFactory.java,lang/java/avro/src/main/java/org/apache/avro/file/FileReader.java,lang/java/avro/src/main/java/org/apache/avro/file/DataFileReader.java,lang/java/avro/src/main/java/org/apache/avro/file/DataFileConstants.java,lang/java/avro/src/main/java/org/apache/avro/file/LengthLimitedInputStream.java,lang/java/avro/src/main/java/org/apache/avro/file/SeekableInput.java,lang/java/avro/src/main/java/org/apache/avro/file/DataFileReader12.java,lang/java/avro/src/main/java/org/apache/avro/util/Utf8.java,lang/java/avro/src/main/java/org/apache/avro/util/WeakIdentityHashMap.java,lang/java/avro/src/main/java/org/apache/avro/util/ByteBufferInputStream.java,lang/java/avro/src/main/java/org/apache/avro/util/ByteBufferOutputStream.java,lang/java/avro/src/main/java/org/apache/avro/AvroRuntimeException.java,lang/java/avro/src/main/java/org/apache/avro/AvroTypeException.java,lang/java/ipc/src/main/java/org/apache/avro/ipc/RPCContext.java,lang/java/ipc/src/main/java/org/apache/avro/ipc/NettyTransportCodec.java,lang/java/ipc/src/main/java/org/apache/avro/ipc/SaslSocketTransceiver.java,lang/java/ipc/src/main/java/org/apache/avro/ipc/specific/SpecificResponder.java,lang/java/ipc/src/main/java/org/apache/avro/ipc/specific/SpecificRequestor.java,lang/java/ipc/src/main/java/org/apache/avro/ipc/SocketTransceiver.java,lang/java/ipc/src/main/java/org/apache/avro/ipc/Transceiver.java,lang/java/ipc/src/main/java/org/apache/avro/ipc/Server.java,lang/java/ipc/src/main/java/org/apache/avro/ipc/reflect/ReflectRequestor.java,lang/java/ipc/src/main/java/org/apache/avro/ipc/reflect/ReflectResponder.java,lang/java/ipc/src/main/java/org/apache/avro/ipc/RPCPlugin.java,lang/java/ipc/src/main/java/org/apache/avro/ipc/NettyServer.java,lang/java/ipc/src/main/java/org/apache/avro/ipc/stats/Histogram.java,lang/java/ipc/src/main/java/org/apache/avro/ipc/stats/IntegerHistogram.java,lang/java/ipc/src/main/java/org/apache/avro/ipc/stats/Stopwatch.java,lang/java/ipc/src/main/java/org/apache/avro/ipc/stats/StatsServer.java,lang/java/ipc/src/main/java/org/apache/avro/ipc/stats/StatsPlugin.java,lang/java/ipc/src/main/java/org/apache/avro/ipc/stats/FloatHistogram.java,lang/java/ipc/src/main/java/org/apache/avro/ipc/stats/StaticServlet.java,lang/java/ipc/src/main/java/org/apache/avro/ipc/stats/StatsServlet.java,lang/java/ipc/src/main/java/org/apache/avro/ipc/DatagramServer.java,lang/java/ipc/src/main/java/org/apache/avro/ipc/DatagramTransceiver.java,lang/java/ipc/src/main/java/org/apache/avro/ipc/NettyTransceiver.java,lang/java/ipc/src/main/java/org/apache/avro/ipc/HttpServer.java,lang/java/ipc/src/main/java/org/apache/avro/ipc/LocalTransceiver.java,lang/java/ipc/src/main/java/org/apache/avro/ipc/Responder.java,lang/java/ipc/src/main/java/org/apache/avro/ipc/generic/GenericResponder.java,lang/java/ipc/src/main/java/org/apache/avro/ipc/generic/GenericRequestor.java,lang/java/ipc/src/main/java/org/apache/avro/ipc/HttpTransceiver.java,lang/java/ipc/src/main/java/org/apache/avro/ipc/SocketServer.java,lang/java/ipc/src/main/java/org/apache/avro/ipc/ResponderServlet.java,lang/java/ipc/src/main/java/org/apache/avro/ipc/trace/TraceNode.java,lang/java/ipc/src/main/java/org/apache/avro/ipc/trace/InMemorySpanStorage.java,lang/java/ipc/src/main/java/org/apache/avro/ipc/trace/FileSpanStorage.java,lang/java/ipc/src/main/java/org/apache/avro/ipc/trace/Trace.java,lang/java/ipc/src/main/java/org/apache/avro/ipc/trace/TraceCollection.java,lang/java/ipc/src/main/java/org/apache/avro/ipc/trace/TraceClientServlet.java,lang/java/ipc/src/main/java/org/apache/avro/ipc/trace/SpanStorage.java,lang/java/ipc/src/main/java/org/apache/avro/ipc/trace/TracePlugin.java,lang/java/ipc/src/main/java/org/apache/avro/ipc/trace/StaticServlet.java,lang/java/ipc/src/main/java/org/apache/avro/ipc/trace/TracePluginConfiguration.java,lang/java/ipc/src/main/java/org/apache/avro/ipc/trace/Util.java,lang/java/ipc/src/main/java/org/apache/avro/ipc/trace/SpanAggregator.java,lang/java/ipc/src/main/java/org/apache/avro/ipc/SaslSocketServer.java,lang/java/ipc/src/main/java/org/apache/avro/ipc/Ipc.java,lang/java/ipc/src/main/java/org/apache/avro/ipc/Requestor.java,lang/java/tools/src/main/java/org/apache/avro/tool/DataFileGetSchemaTool.java,lang/java/tools/src/main/java/org/apache/avro/tool/ToTextTool.java,lang/java/tools/src/main/java/org/apache/avro/tool/TetherTool.java,lang/java/tools/src/main/java/org/apache/avro/tool/DataFileWriteTool.java,lang/java/tools/src/main/java/org/apache/avro/tool/Tool.java,lang/java/tools/src/main/java/org/apache/avro/tool/DataFileReadTool.java,lang/java/tools/src/main/java/org/apache/avro/tool/JsonToBinaryFragmentTool.java,lang/java/tools/src/main/java/org/apache/avro/tool/RpcSendTool.java,lang/java/tools/src/main/java/org/apache/avro/tool/RpcReceiveTool.java,lang/java/tools/src/main/java/org/apache/avro/tool/BinaryFragmentToJsonTool.java,lang/java/tools/src/main/java/org/apache/avro/tool/Main.java,lang/java/tools/src/main/java/org/apache/avro/tool/SpecificCompilerTool.java,lang/java/tools/src/main/java/org/apache/avro/tool/FromTextTool.java,lang/java/tools/src/main/java/org/apache/avro/tool/RecodecTool.java,lang/java/tools/src/main/java/org/apache/avro/tool/InduceSchemaTool.java,lang/java/tools/src/main/java/org/apache/avro/tool/Util.java,lang/java/tools/src/main/java/org/apache/avro/tool/IdlTool.java,lang/java/compiler/src/main/java/org/apache/avro/compiler/specific/SchemaTask.java,lang/java/compiler/src/main/java/org/apache/avro/compiler/specific/SpecificCompiler.java,lang/java/compiler/src/main/java/org/apache/avro/compiler/specific/ProtocolTask.java,lang/java/maven-plugin/src/main/java/org/apache/avro/mojo/ProtocolMojo.java,lang/java/maven-plugin/src/main/java/org/apache/avro/mojo/AbstractAvroMojo.java,lang/java/maven-plugin/src/main/java/org/apache/avro/mojo/SchemaMojo.java,lang/java/maven-plugin/src/main/java/org/apache/avro/mojo/IDLProtocolMojo.java,lang/java/mapred/src/main/java/org/apache/avro/mapred/AvroAsTextRecordReader.java,lang/java/mapred/src/main/java/org/apache/avro/mapred/AvroTextOutputFormat.java,lang/java/mapred/src/main/java/org/apache/avro/mapred/AvroAsTextInputFormat.java,lang/java/avro/src/main/java/org/apache/avro/file/SnappyCodec.java,lang/java/ipc/src/main/java/org/apache/avro/ipc/CallFuture.java,lang/java/ipc/src/main/java/org/apache/avro/ipc/Callback.java}
@attribute LOC numeric
@attribute LOC_TOUCHED numeric
@attribute REVS numeric
@attribute FIXES numeric
@attribute AUTH numeric
@attribute LOC_ADDED numeric
@attribute MAX_LOC_ADDED numeric
@attribute AVG_LOC_ADDED numeric
@attribute CHURN numeric
@attribute MAX_CHURN numeric
@attribute AVG_CHURN numeric
@attribute CHANGE_SET_SIZE numeric
@attribute MAX_CHANGE_SET numeric
@attribute AVG_CHANGE_SET numeric
@attribute AGE numeric
@attribute WEIGHTED_AGE numeric
@attribute COMMENT_LINES numeric
@attribute NESTING_DEPTH numeric
@attribute DECISION_POINTS numeric
@attribute nsmells numeric
@attribute DISTINCT_SMELL_TYPES numeric
@attribute BUGGY {YES,NO}


@data
1.0.0,src/java/org/apache/avro/AvroRuntimeException.java,0.031122,0.589501,1.461528,0.000000,1.265598,0.547521,0.405654,0.468538,0.748973,0.425748,0.706586,0.289741,0.294169,0.725356,0.758632,0.848670,0.301375,0.000000,0.000000,0.000000,0.000000,NO
1.0.0,src/java/org/apache/avro/AvroTypeException.java,0.024898,0.712313,1.948704,0.000000,1.265598,0.638774,0.473264,0.409971,0.905009,0.496706,0.640343,0.323984,0.294169,0.608310,0.758632,0.844236,0.319103,0.000000,0.000000,0.000000,0.000000,NO
1.0.0,src/java/org/apache/avro/Protocol.java,1.531199,9.129071,6.333289,0.000000,1.265598,8.292656,5.070681,1.637629,9.851077,5.321853,2.144669,0.484658,0.294169,0.279998,0.758632,0.830479,0.939581,0.986843,1.269780,0.000000,0.000000,YES
1.0.0,src/java/org/apache/avro/Schema.java,3.728408,17.201954,7.794818,0.000000,1.265598,16.117639,7.622924,2.586109,17.215980,8.000519,3.045311,0.491243,0.294169,0.230589,0.758632,0.817135,1.329595,2.631581,3.317812,0.000000,0.000000,YES
1.0.0,src/java/org/apache/avro/SchemaParseException.java,0.031122,0.589501,1.461528,0.000000,1.265598,0.547521,0.405654,0.468538,0.748973,0.425748,0.706586,0.289741,0.294169,0.725356,0.758632,0.848670,0.301375,0.000000,0.000000,0.000000,0.000000,NO
1.0.0,src/java/org/apache/avro/file/DataFileReader.java,0.989678,5.518380,2.923057,0.000000,1.265598,5.087379,3.515672,2.176748,6.595125,3.689818,3.110940,0.379298,0.294169,0.474779,0.758632,0.839045,0.797757,0.986843,0.778252,0.000000,0.000000,YES
1.0.0,src/java/org/apache/avro/file/DataFileWriter.java,0.821619,4.789692,2.923057,0.000000,1.265598,4.437199,3.093115,1.898554,5.814944,3.246330,2.742927,0.379298,0.294169,0.474779,0.758632,0.840383,0.797757,0.328948,0.163843,0.000000,0.000000,YES
1.0.0,src/java/org/apache/avro/file/SeekableFileInput.java,0.056019,0.786001,1.461528,0.000000,1.265598,0.730028,0.540873,0.624717,0.998631,0.567664,0.942114,0.289741,0.294169,0.725356,0.758632,0.848670,0.319103,0.000000,0.000000,0.000000,0.000000,NO
1.0.0,src/java/org/apache/avro/file/SeekableInput.java,0.049795,0.884251,1.461528,0.000000,1.265598,0.821281,0.608482,0.702807,1.123460,0.638622,1.059879,0.289741,0.294169,0.725356,0.758632,0.848670,0.390015,0.000000,0.000000,0.000000,0.000000,YES
1.0.0,src/java/org/apache/avro/generic/GenericArray.java,0.043571,0.917001,1.948704,0.000000,1.265598,0.844094,0.625384,0.541747,1.165069,0.656362,0.824350,0.323984,0.294169,0.608310,0.758632,0.847522,0.425470,0.000000,0.000000,0.000000,0.000000,NO
1.0.0,src/java/org/apache/avro/generic/GenericData.java,1.481404,6.705569,4.871761,0.000000,1.265598,6.262267,4.225567,1.607670,8.249107,4.434878,2.334677,0.475439,0.294169,0.357073,0.758632,0.843096,0.425470,3.947372,2.826284,0.000000,0.000000,YES
1.0.0,src/java/org/apache/avro/generic/GenericDatumReader.java,2.122516,14.311764,7.307641,0.000000,1.265598,12.604381,4.479101,2.157226,11.941960,4.700970,2.253224,0.513633,0.294169,0.257172,0.758632,0.782474,1.613242,1.644738,3.891261,0.000000,0.000000,YES
1.0.0,src/java/org/apache/avro/generic/GenericDatumWriter.java,1.039473,5.788568,4.384585,0.000000,1.265598,5.475206,2.771972,1.561792,6.064602,2.909280,1.907127,0.453050,0.294169,0.378064,0.758632,0.832064,0.957309,0.986843,1.351701,0.000000,0.000000,YES
1.0.0,src/java/org/apache/avro/generic/GenericFixed.java,0.024898,0.786001,1.948704,0.000000,1.265598,0.684401,0.473264,0.439254,0.915412,0.496706,0.647704,0.316082,0.294169,0.593473,0.758632,0.837150,0.336831,0.000000,0.000000,0.000000,0.000000,NO
1.0.0,src/java/org/apache/avro/generic/GenericRecord.java,0.037346,0.687751,1.461528,0.000000,1.265598,0.638774,0.473264,0.546627,0.873802,0.496706,0.824350,0.289741,0.294169,0.725356,0.758632,0.848670,0.336831,0.000000,0.000000,0.000000,0.000000,NO
1.0.0,src/java/org/apache/avro/generic/GenericRequestor.java,0.186732,1.645689,2.923057,0.000000,1.265598,1.471462,0.963429,0.629598,1.778811,1.011152,0.839071,0.380615,0.294169,0.476427,0.758632,0.831397,0.319103,0.000000,0.000000,0.000000,0.000000,NO
1.0.0,src/java/org/apache/avro/generic/GenericResponder.java,0.149385,1.539252,2.435880,0.000000,1.265598,1.380208,0.895820,0.708663,1.664385,0.940194,0.942114,0.346373,0.294169,0.520278,0.758632,0.839037,0.372287,0.000000,0.000000,0.000000,0.000000,NO
1.0.0,src/java/org/apache/avro/io/BinaryDecoder.java,1.282224,2.538127,0.974352,0.000000,1.265598,3.479037,5.155192,4.465750,3.224745,5.410551,4.563367,0.051363,0.061508,0.192879,0.614952,0.687868,1.045948,0.986843,0.778252,0.000000,0.000000,NO
1.0.0,src/java/org/apache/avro/io/BinaryEncoder.java,1.095492,7.663508,2.923057,0.000000,1.265598,6.764161,6.473569,2.894197,8.030656,5.836299,3.788085,0.366128,0.294169,0.458293,0.758632,0.752754,0.691390,0.328948,0.204803,0.000000,0.000000,NO
1.0.0,src/java/org/apache/avro/io/BlockingBinaryEncoder.java,2.601794,5.174505,0.974352,0.000000,1.265598,7.151988,10.513212,9.180411,6.470296,11.033976,9.156175,0.055314,0.061508,0.207716,0.649435,0.725902,2.198264,1.315791,1.843229,0.000000,0.000000,YES
1.0.0,src/java/org/apache/avro/io/DatumReader.java,0.043571,1.015251,2.435880,0.000000,1.265598,0.923941,0.659189,0.474394,1.227484,0.691841,0.694809,0.354275,0.294169,0.532148,0.758632,0.840892,0.425470,0.000000,0.000000,0.000000,0.000000,NO
1.0.0,src/java/org/apache/avro/io/DatumWriter.java,0.043571,0.941563,2.435880,0.000000,1.265598,0.855501,0.608482,0.439254,1.133862,0.638622,0.641815,0.354275,0.294169,0.532148,0.758632,0.840284,0.407743,0.000000,0.000000,0.000000,0.000000,NO
1.0.0,src/java/org/apache/avro/io/Decoder.java,0.217854,9.669447,3.410233,0.000000,1.265598,8.372503,7.065149,3.070596,9.268542,5.978215,3.747428,0.371396,0.294169,0.398475,0.758632,0.759311,3.935602,0.000000,0.000000,0.000000,0.000000,NO
1.0.0,src/java/org/apache/avro/io/Encoder.java,0.230302,7.622570,2.923057,0.000000,1.265598,6.878228,6.473569,2.943003,7.895425,5.836299,3.724296,0.366128,0.294169,0.458293,0.758632,0.753121,3.758322,0.000000,0.000000,0.000000,0.000000,NO
1.0.0,src/java/org/apache/avro/io/ParsingTable.java,1.500078,3.135816,0.487176,0.000000,1.265598,4.368758,6.473569,11.215622,3.984121,6.794233,11.275932,0.021072,0.042788,0.158260,0.611120,0.683651,1.666426,1.315791,0.901134,0.000000,0.000000,NO
1.0.0,src/java/org/apache/avro/io/ResolvingDecoder.java,0.809170,1.825814,0.487176,0.000000,1.265598,2.543690,3.769206,6.530245,2.319736,3.955911,6.565360,0.021072,0.042788,0.158260,0.611120,0.683651,1.435963,2.302633,0.942095,0.000000,0.000000,NO
1.0.0,src/java/org/apache/avro/io/ResolvingTable.java,2.383941,4.003691,0.487176,0.000000,1.265598,5.577867,8.265210,14.319685,5.086776,8.674621,14.396686,0.021072,0.042788,0.158260,0.611120,0.683651,0.939581,2.631581,2.621481,0.000000,0.000000,NO
1.0.0,src/java/org/apache/avro/io/ValidatingDecoder.java,1.842419,2.931128,0.487176,0.000000,1.265598,4.083591,6.051013,10.483532,3.724061,6.350745,10.539905,0.021072,0.042788,0.158260,0.611120,0.683651,0.567294,1.315791,1.515544,0.000000,0.000000,NO
1.0.0,src/java/org/apache/avro/io/ValidatingEncoder.java,1.002126,1.842189,0.487176,0.000000,1.265598,2.566503,3.803011,6.588812,2.340541,3.991390,6.624242,0.021072,0.042788,0.158260,0.611120,0.683651,0.691390,0.986843,0.245764,0.000000,0.000000,NO
1.0.0,src/java/org/apache/avro/ipc/AvroRemoteException.java,0.093366,1.113501,1.948704,0.000000,1.265598,1.003788,0.743700,0.644239,1.414727,0.780538,1.000997,0.323984,0.294169,0.608310,0.758632,0.844888,0.319103,0.328948,0.040961,0.000000,0.000000,NO
1.0.0,src/java/org/apache/avro/ipc/ByteBufferInputStream.java,0.311219,2.112377,2.923057,0.000000,1.265598,1.961949,1.166257,0.839463,2.330139,1.224026,1.099133,0.323984,0.294169,0.405540,0.758632,0.847249,0.531838,0.657895,0.286725,0.000000,0.000000,NO
1.0.0,src/java/org/apache/avro/ipc/ByteBufferOutputStream.java,0.329893,2.153315,1.948704,0.000000,1.265598,1.996169,1.470497,1.281158,2.715028,1.543337,1.921030,0.314765,0.294169,0.591000,0.758632,0.847741,0.443198,0.328948,0.163843,0.000000,0.000000,NO
1.0.0,src/java/org/apache/avro/ipc/Requestor.java,0.840292,4.036441,3.897409,0.000000,1.265598,3.855458,1.774738,1.237232,4.088145,1.862649,1.446293,0.417491,0.294169,0.391940,0.758632,0.802634,0.585022,0.657895,0.491528,0.000000,0.000000,NO
1.0.0,src/java/org/apache/avro/ipc/Responder.java,0.765600,4.093754,4.384585,0.000000,1.265598,3.844051,2.095881,1.096508,4.389815,2.199699,1.380459,0.403004,0.294169,0.336301,0.758632,0.816317,0.514110,0.657895,0.573449,0.000000,0.000000,NO
1.0.0,src/java/org/apache/avro/ipc/SocketServer.java,0.460605,3.373253,2.435880,0.000000,1.265598,2.977143,1.994468,1.528604,3.765670,2.093262,2.131534,0.356909,0.294169,0.536104,0.758632,0.832066,0.319103,0.657895,0.245764,0.000000,0.000000,NO
1.0.0,src/java/org/apache/avro/ipc/SocketTransceiver.java,0.385912,2.186065,1.948704,0.000000,1.265598,2.053202,1.470497,1.317762,2.777442,1.543337,1.965192,0.322667,0.294169,0.605837,0.758632,0.846069,0.372287,0.657895,0.204803,0.000000,0.000000,NO
1.0.0,src/java/org/apache/avro/ipc/Transceiver.java,0.099590,0.998876,1.948704,0.000000,1.265598,0.935348,0.676091,0.600314,1.269093,0.709580,0.897953,0.322667,0.294169,0.605837,0.758632,0.846773,0.319103,0.000000,0.000000,0.000000,0.000000,NO
1.0.0,src/java/org/apache/avro/reflect/FixedSize.java,0.056019,0.835126,1.948704,0.000000,1.265598,0.752841,0.473264,0.483180,0.894607,0.496706,0.632983,0.316082,0.294169,0.593473,0.758632,0.832407,0.336831,0.000000,0.000000,0.000000,0.000000,YES
1.0.0,src/java/org/apache/avro/reflect/ReflectData.java,1.188858,5.682131,4.384585,0.000000,1.265598,5.349733,3.279040,1.526001,6.595125,3.441465,2.073960,0.442514,0.294169,0.369272,0.758632,0.839995,0.673662,4.276319,2.129954,0.000000,0.000000,YES
1.0.0,src/java/org/apache/avro/reflect/ReflectDatumReader.java,0.529073,3.504253,3.897409,0.000000,1.265598,3.114024,1.555009,0.999303,3.516013,1.632035,1.243885,0.418808,0.294169,0.393176,0.758632,0.837534,0.336831,0.657895,0.327685,0.000000,0.000000,YES
1.0.0,src/java/org/apache/avro/reflect/ReflectDatumWriter.java,0.242751,2.030502,3.897409,0.000000,1.265598,1.802255,1.031038,0.578351,2.226115,1.082110,0.787549,0.422759,0.294169,0.396885,0.758632,0.840244,0.319103,0.328948,0.081921,0.000000,0.000000,YES
1.0.0,src/java/org/apache/avro/reflect/ReflectRequestor.java,0.336117,2.153315,2.435880,0.000000,1.265598,1.984762,1.301475,1.019070,2.486175,1.365942,1.407283,0.346373,0.294169,0.520278,0.758632,0.841662,0.336831,0.328948,0.040961,0.000000,0.000000,NO
1.0.0,src/java/org/apache/avro/reflect/ReflectResponder.java,0.547746,3.275003,3.897409,0.000000,1.265598,2.988550,1.994468,0.959038,3.765670,2.093262,1.332209,0.442514,0.294169,0.415431,0.758632,0.842626,0.372287,0.657895,0.860174,0.000000,0.000000,YES
1.0.0,src/java/org/apache/avro/specific/ProtocolTask.java,0.448156,2.349815,1.948704,0.000000,1.265598,2.235709,1.419791,1.434897,2.839856,1.490119,2.009353,0.295009,0.294169,0.553908,0.758632,0.847363,0.390015,0.986843,0.368646,0.000000,0.000000,NO
1.0.0,src/java/org/apache/avro/specific/SchemaTask.java,0.049795,0.736876,1.948704,0.000000,1.265598,0.672994,0.473264,0.431933,0.873802,0.496706,0.618263,0.295009,0.294169,0.553908,0.758632,0.847955,0.319103,0.000000,0.000000,0.000000,0.000000,NO
1.0.0,src/java/org/apache/avro/specific/SpecificCompiler.java,1.319570,6.394444,5.846113,0.000000,1.265598,5.988507,3.803011,1.281158,7.541743,3.991390,1.778732,0.460952,0.294169,0.288494,0.758632,0.841749,0.567294,1.315791,2.088993,0.000000,0.000000,YES
1.0.0,src/java/org/apache/avro/specific/SpecificDatumReader.java,0.149385,4.568629,3.897409,0.000000,1.265598,3.456224,2.112784,1.109117,5.242812,2.217439,1.854788,0.391151,0.294169,0.367212,0.758632,0.839947,0.319103,0.000000,0.000000,0.000000,0.000000,YES
1.0.0,src/java/org/apache/avro/specific/SpecificDatumWriter.java,0.080917,1.260876,2.923057,0.000000,1.265598,1.083635,0.726798,0.463657,1.414727,0.762799,0.667331,0.356909,0.294169,0.446753,0.758632,0.843869,0.319103,0.000000,0.000000,0.000000,0.000000,YES
1.0.0,src/java/org/apache/avro/specific/SpecificExceptionBase.java,0.093366,0.949751,1.948704,0.000000,1.265598,0.889721,0.507068,0.571030,1.040240,0.532185,0.736027,0.296326,0.294169,0.556381,0.758632,0.822731,0.319103,0.000000,0.000000,0.000000,0.000000,NO
1.0.0,src/java/org/apache/avro/specific/SpecificFixed.java,0.049795,0.835126,2.435880,0.000000,1.265598,0.741434,0.473264,0.380687,0.873802,0.496706,0.494610,0.321350,0.294169,0.482692,0.758632,0.837198,0.319103,0.000000,0.000000,0.000000,0.000000,NO
1.0.0,src/java/org/apache/avro/specific/SpecificRecord.java,0.043571,0.753251,1.948704,0.000000,1.265598,0.684401,0.507068,0.439254,0.957021,0.532185,0.677145,0.323984,0.294169,0.608310,0.758632,0.845874,0.336831,0.000000,0.000000,0.000000,0.000000,NO
1.0.0,src/java/org/apache/avro/specific/SpecificRecordBase.java,0.230302,0.524001,0.487176,0.000000,1.265598,0.730028,1.081745,1.874151,0.665754,1.135329,1.884229,0.006585,0.013371,0.049456,0.655182,0.732942,0.319103,0.986843,0.327685,0.000000,0.000000,NO
1.0.0,src/java/org/apache/avro/specific/SpecificRequestor.java,0.186732,1.424626,1.948704,0.000000,1.265598,1.311768,0.895820,0.841904,1.685190,0.940194,1.192364,0.316082,0.294169,0.593473,0.758632,0.847746,0.336831,0.000000,0.000000,0.000000,0.000000,YES
1.0.0,src/java/org/apache/avro/specific/SpecificResponder.java,0.105815,1.236314,1.948704,0.000000,1.265598,1.095041,0.777504,0.702807,1.487544,0.816017,1.052518,0.323984,0.294169,0.608310,0.758632,0.837599,0.319103,0.000000,0.000000,0.000000,0.000000,YES
1.0.0,src/java/org/apache/avro/util/Utf8.java,0.317444,1.965002,1.461528,0.000000,1.265598,1.825069,1.352182,1.561792,2.496577,1.419161,2.355286,0.289741,0.294169,0.725356,0.758632,0.848670,0.319103,0.657895,0.368646,0.000000,0.000000,NO
1.1.0,src/java/org/apache/avro/AvroRuntimeException.java,0.031122,0.008188,0.487176,0.000000,1.265598,0.011407,0.016902,0.029284,0.010402,0.017740,0.029441,0.375347,0.294169,0.704749,0.758632,0.845440,0.301375,0.000000,0.000000,0.000000,0.000000,NO
1.1.0,src/java/org/apache/avro/AvroTypeException.java,0.024898,0.008188,0.487176,0.000000,1.265598,0.011407,0.016902,0.029284,0.010402,0.017740,0.029441,0.409589,0.294169,0.615234,0.758632,0.841607,0.319103,0.000000,0.000000,0.000000,0.000000,NO
1.1.0,src/java/org/apache/avro/SchemaParseException.java,0.031122,0.008188,0.487176,0.000000,1.265598,0.011407,0.016902,0.029284,0.010402,0.017740,0.029441,0.375347,0.294169,0.704749,0.758632,0.845440,0.301375,0.000000,0.000000,0.000000,0.000000,NO
1.1.0,src/java/org/apache/avro/file/SeekableFileInput.java,0.068468,0.040938,0.487176,0.000000,1.265598,0.045627,0.067609,0.117134,0.031207,0.053219,0.088323,0.375347,0.294169,0.704749,0.758632,0.836999,0.319103,0.000000,0.000000,0.000000,0.000000,NO
1.1.0,src/java/org/apache/avro/file/SeekableInput.java,0.049795,0.090063,0.974352,0.531930,1.265598,0.068440,0.050707,0.087851,0.010402,0.017740,0.014721,0.388517,0.294169,0.583582,0.758632,0.825258,0.390015,0.000000,0.000000,0.000000,0.000000,NO
1.1.0,src/java/org/apache/avro/generic/GenericArray.java,0.043571,0.024563,0.974352,0.000000,1.265598,0.022813,0.016902,0.029284,0.010402,0.017740,0.014721,0.442514,0.294169,0.553908,0.758632,0.840060,0.425470,0.000000,0.000000,0.000000,0.000000,NO
1.1.0,src/java/org/apache/avro/generic/GenericContainer.java,0.031122,0.073688,0.974352,0.000000,1.265598,0.045627,0.033805,0.058567,0.031207,0.035479,0.044162,0.408272,0.294169,0.613256,0.758632,0.820878,0.336831,0.000000,0.000000,0.000000,0.000000,NO
1.1.0,src/java/org/apache/avro/generic/GenericRecord.java,0.024898,0.081875,0.974352,0.000000,1.265598,0.034220,0.033805,0.043925,0.062414,0.088698,0.088323,0.408272,0.294169,0.613256,0.758632,0.817845,0.319103,0.000000,0.000000,0.000000,0.000000,NO
1.1.0,src/java/org/apache/avro/generic/GenericResponder.java,0.149385,0.008188,0.487176,0.000000,1.265598,0.011407,0.016902,0.029284,0.010402,0.017740,0.029441,0.431978,0.294169,0.540720,0.758632,0.837841,0.372287,0.000000,0.000000,0.000000,0.000000,NO
1.1.0,src/java/org/apache/avro/io/BinaryData.java,0.971005,3.029378,1.461528,0.000000,1.265598,3.205277,3.211431,2.742898,1.997262,3.370507,1.884229,0.046095,0.066857,0.115398,0.482766,0.536952,0.567294,1.973686,1.638426,0.000000,0.000000,NO
1.1.0,src/java/org/apache/avro/io/DatumReader.java,0.043571,0.000000,0.000000,0.000000,0.000000,0.000000,0.000000,0.000000,0.000000,0.000000,0.000000,0.354275,0.294169,0.532148,0.758632,0.840892,0.425470,0.000000,0.000000,0.000000,0.000000,NO
1.1.0,src/java/org/apache/avro/io/DatumWriter.java,0.043571,0.008188,0.487176,0.000000,1.265598,0.011407,0.016902,0.029284,0.010402,0.017740,0.029441,0.439880,0.294169,0.550611,0.758632,0.838324,0.407743,0.000000,0.000000,0.000000,0.000000,NO
1.1.0,src/java/org/apache/avro/io/Encoder.java,0.224078,0.016375,0.487176,0.000000,1.265598,0.011407,0.016902,0.029284,0.000000,0.000000,0.000000,0.451733,0.294169,0.484670,0.758632,0.752820,3.758322,0.000000,0.000000,0.000000,0.000000,NO
1.1.0,src/java/org/apache/avro/io/JsonDecoder.java,2.134965,3.545191,1.461528,0.000000,1.265598,4.745179,6.710201,4.060660,4.171364,7.042586,3.935290,0.126433,0.173827,0.316519,0.559395,0.622535,0.319103,1.644738,1.556504,0.000000,0.000000,YES
1.1.0,src/java/org/apache/avro/io/JsonEncoder.java,1.188858,2.087815,1.461528,0.000000,1.265598,2.828857,4.039642,2.420778,2.527784,4.239743,2.384727,0.126433,0.173827,0.316519,0.559395,0.623039,0.372287,0.986843,0.573449,0.000000,0.000000,YES
1.1.0,src/java/org/apache/avro/io/ParsingDecoder.java,0.292546,0.614063,0.974352,0.000000,1.265598,0.855501,1.250768,1.098135,0.780180,1.312724,1.104040,0.115897,0.173827,0.435214,0.559395,0.625615,0.336831,3.947372,0.532488,0.000000,0.000000,NO
1.1.0,src/java/org/apache/avro/io/ParsingEncoder.java,0.224078,0.573126,1.461528,0.000000,1.265598,0.798468,0.878918,0.683284,0.728168,0.922455,0.686958,0.118531,0.173827,0.296737,0.559395,0.602702,0.425470,0.328948,0.122882,0.000000,0.000000,NO
1.1.0,src/java/org/apache/avro/io/parsing/JsonGrammarGenerator.java,0.379688,0.843313,0.974352,0.000000,1.265598,1.174888,1.724032,1.508106,1.071448,1.809430,1.516215,0.115897,0.173827,0.435214,0.559395,0.625662,0.620478,1.315791,0.655370,0.000000,0.000000,YES
1.1.0,src/java/org/apache/avro/io/parsing/Parser.java,0.448156,1.219939,0.974352,0.000000,1.265598,1.676782,2.433927,2.152345,1.508349,2.554490,2.134478,0.115897,0.173827,0.435214,0.559395,0.625355,1.081404,1.315791,0.327685,0.000000,0.000000,YES
1.1.0,src/java/org/apache/avro/io/parsing/ResolvingGrammarGenerator.java,1.531199,2.783753,1.461528,0.000000,1.265598,3.866865,5.696065,3.309048,3.516013,5.978215,3.317028,0.126433,0.173827,0.316519,0.559395,0.625409,1.187772,1.644738,2.580521,0.000000,0.000000,YES
1.1.0,src/java/org/apache/avro/io/parsing/SkipParser.java,0.267649,0.810563,0.974352,0.000000,1.265598,1.106448,1.588813,1.420255,0.988228,1.667514,1.398451,0.115897,0.173827,0.435214,0.559395,0.625137,0.762301,0.986843,0.122882,0.000000,0.000000,YES
1.1.0,src/java/org/apache/avro/io/parsing/Symbol.java,1.587219,3.135816,0.974352,0.000000,1.265598,4.368758,6.456667,5.607811,3.984121,6.776493,5.637966,0.115897,0.173827,0.435214,0.559395,0.625753,1.418235,0.986843,0.327685,0.000000,0.000000,YES
1.1.0,src/java/org/apache/avro/io/parsing/ValidatingGrammarGenerator.java,0.522849,1.154439,1.461528,0.000000,1.265598,1.596935,2.332513,1.366568,1.445934,2.448052,1.364103,0.126433,0.173827,0.316519,0.559395,0.624875,0.762301,1.315791,0.737292,0.000000,0.000000,YES
1.1.0,src/java/org/apache/avro/ipc/RPCContext.java,0.398361,1.219939,0.487176,0.000000,1.265598,1.699595,2.518438,4.363258,1.549958,2.643187,4.386720,0.017121,0.034765,0.128586,0.542154,0.606499,1.187772,0.328948,0.163843,0.000000,0.000000,NO
1.1.0,src/java/org/apache/avro/ipc/RPCPlugin.java,0.062244,0.605876,0.487176,0.000000,1.265598,0.844094,1.250768,2.166987,0.769778,1.312724,2.178640,0.017121,0.034765,0.128586,0.542154,0.606499,0.975036,0.000000,0.000000,0.000000,0.000000,NO
1.1.0,src/java/org/apache/avro/reflect/FixedSize.java,0.074693,0.106438,0.974352,0.531930,1.265598,0.114067,0.101414,0.146418,0.072817,0.070958,0.103044,0.414857,0.294169,0.519289,0.758632,0.806199,0.390015,0.000000,0.000000,0.000000,0.000000,NO
1.1.0,src/java/org/apache/avro/specific/SchemaTask.java,0.049795,0.008188,0.487176,0.000000,1.265598,0.011407,0.016902,0.029284,0.010402,0.017740,0.029441,0.380615,0.294169,0.571712,0.758632,0.845373,0.319103,0.000000,0.000000,0.000000,0.000000,NO
1.1.0,src/java/org/apache/avro/specific/SpecificData.java,0.248976,0.679563,0.974352,0.000000,1.265598,0.878314,1.132452,1.127419,0.738571,1.188547,1.045158,0.042144,0.066857,0.158260,0.478934,0.535363,0.372287,1.644738,0.245764,0.000000,0.000000,YES
1.1.0,src/java/org/apache/avro/specific/SpecificDatumReader.java,0.143161,0.032750,0.974352,0.531930,1.265598,0.022813,0.016902,0.029284,0.000000,0.000000,0.000000,0.489926,0.294169,0.367953,0.758632,0.838217,0.319103,0.000000,0.000000,0.000000,0.000000,YES
1.1.0,src/java/org/apache/avro/specific/SpecificFixed.java,0.049795,0.008188,0.487176,0.000000,1.265598,0.011407,0.016902,0.029284,0.010402,0.017740,0.029441,0.406955,0.294169,0.509398,0.758632,0.835020,0.319103,0.000000,0.000000,0.000000,0.000000,NO
1.1.0,src/java/org/apache/avro/specific/SpecificRecord.java,0.037346,0.049125,0.974352,0.000000,1.265598,0.034220,0.033805,0.043925,0.020805,0.017740,0.029441,0.442514,0.294169,0.553908,0.758632,0.827676,0.336831,0.000000,0.000000,0.000000,0.000000,NO
1.1.0,src/java/org/apache/avro/specific/SpecificResponder.java,0.099590,0.032750,0.974352,0.531930,1.265598,0.022813,0.016902,0.029284,0.000000,0.000000,0.000000,0.422759,0.294169,0.529180,0.758632,0.831387,0.319103,0.000000,0.000000,0.000000,0.000000,YES
1.2.0,src/java/org/apache/avro/AvroRuntimeException.java,0.031122,0.008188,0.487176,0.000000,1.265598,0.011407,0.016902,0.029284,0.010402,0.017740,0.029441,0.380615,0.294169,0.571712,0.758632,0.840184,0.319103,0.000000,0.000000,0.000000,0.000000,NO
1.2.0,src/java/org/apache/avro/AvroTypeException.java,0.024898,0.000000,0.000000,0.000000,0.000000,0.000000,0.000000,0.000000,0.000000,0.000000,0.000000,0.409589,0.294169,0.615234,0.758632,0.841607,0.319103,0.000000,0.000000,0.000000,0.000000,NO
1.2.0,src/java/org/apache/avro/SchemaParseException.java,0.031122,0.008188,0.487176,0.000000,1.265598,0.011407,0.016902,0.029284,0.010402,0.017740,0.029441,0.380615,0.294169,0.571712,0.758632,0.840184,0.319103,0.000000,0.000000,0.000000,0.000000,NO
1.2.0,src/java/org/apache/avro/file/DataFileConstants.java,0.093366,0.253813,0.487176,0.531930,1.265598,0.193914,0.287339,0.497821,0.031207,0.053219,0.088323,0.383249,0.294169,0.575669,0.758632,0.748642,0.354559,0.000000,0.000000,0.000000,0.000000,NO
1.2.0,src/java/org/apache/avro/file/SeekableFileInput.java,0.068468,0.000000,0.000000,0.000000,0.000000,0.000000,0.000000,0.000000,0.000000,0.000000,0.000000,0.375347,0.294169,0.704749,0.758632,0.836999,0.319103,0.000000,0.000000,0.000000,0.000000,NO
1.2.0,src/java/org/apache/avro/file/SeekableInput.java,0.049795,0.000000,0.000000,0.531930,0.000000,0.000000,0.000000,0.000000,0.000000,0.000000,0.000000,0.388517,0.294169,0.583582,0.758632,0.825258,0.390015,0.000000,0.000000,0.000000,0.000000,NO
1.2.0,src/java/org/apache/avro/generic/GenericArray.java,0.043571,0.000000,0.000000,0.000000,0.000000,0.000000,0.000000,0.000000,0.000000,0.000000,0.000000,0.442514,0.294169,0.553908,0.758632,0.840060,0.425470,0.000000,0.000000,0.000000,0.000000,NO
1.2.0,src/java/org/apache/avro/generic/GenericContainer.java,0.031122,0.000000,0.000000,0.000000,0.000000,0.000000,0.000000,0.000000,0.000000,0.000000,0.000000,0.408272,0.294169,0.613256,0.758632,0.820878,0.336831,0.000000,0.000000,0.000000,0.000000,NO
1.2.0,src/java/org/apache/avro/generic/GenericDatumWriter.java,0.759375,0.000000,0.000000,0.531930,0.000000,0.000000,0.000000,0.000000,0.000000,0.000000,0.000000,0.525486,0.294169,0.328883,0.758632,0.795609,0.797757,0.657895,0.696331,0.000000,0.000000,YES
1.2.0,src/java/org/apache/avro/generic/GenericFixed.java,0.024898,0.000000,0.000000,0.000000,0.000000,0.000000,0.000000,0.000000,0.000000,0.000000,0.000000,0.401687,0.294169,0.603364,0.758632,0.832575,0.336831,0.000000,0.000000,0.000000,0.000000,NO
1.2.0,src/java/org/apache/avro/generic/GenericRecord.java,0.024898,0.000000,0.000000,0.000000,0.000000,0.000000,0.000000,0.000000,0.000000,0.000000,0.000000,0.408272,0.294169,0.613256,0.758632,0.817845,0.319103,0.000000,0.000000,0.000000,0.000000,YES
1.2.0,src/java/org/apache/avro/generic/GenericResponder.java,0.149385,0.000000,0.000000,0.000000,0.000000,0.000000,0.000000,0.000000,0.000000,0.000000,0.000000,0.431978,0.294169,0.540720,0.758632,0.837841,0.372287,0.000000,0.000000,0.000000,0.000000,NO
1.2.0,src/java/org/apache/avro/io/DatumReader.java,0.043571,0.000000,0.000000,0.000000,0.000000,0.000000,0.000000,0.000000,0.000000,0.000000,0.000000,0.354275,0.294169,0.532148,0.758632,0.840892,0.425470,0.000000,0.000000,0.000000,0.000000,NO
1.2.0,src/java/org/apache/avro/io/DatumWriter.java,0.043571,0.000000,0.000000,0.000000,0.000000,0.000000,0.000000,0.000000,0.000000,0.000000,0.000000,0.439880,0.294169,0.550611,0.758632,0.838324,0.407743,0.000000,0.000000,0.000000,0.000000,NO
1.2.0,src/java/org/apache/avro/io/Decoder.java,0.199180,0.000000,0.000000,0.000000,0.000000,0.000000,0.000000,0.000000,0.000000,0.000000,0.000000,0.497828,0.294169,0.373888,0.758632,0.757298,3.882418,0.000000,0.000000,0.000000,0.000000,NO
1.2.0,src/java/org/apache/avro/io/Encoder.java,0.224078,0.000000,0.000000,0.000000,0.000000,0.000000,0.000000,0.000000,0.000000,0.000000,0.000000,0.451733,0.294169,0.484670,0.758632,0.752820,3.758322,0.000000,0.000000,0.000000,0.000000,NO
1.2.0,src/java/org/apache/avro/io/JsonEncoder.java,1.176409,0.032750,0.487176,0.531930,1.265598,0.011407,0.016902,0.029284,0.020805,0.035479,0.058882,0.135652,0.173827,0.254699,0.559395,0.620963,0.372287,0.986843,0.532488,0.000000,0.000000,YES
1.2.0,src/java/org/apache/avro/io/ParsingDecoder.java,0.292546,0.000000,0.000000,0.000000,0.000000,0.000000,0.000000,0.000000,0.000000,0.000000,0.000000,0.115897,0.173827,0.435214,0.559395,0.625615,0.336831,3.947372,0.532488,0.000000,0.000000,NO
1.2.0,src/java/org/apache/avro/io/ValidatingDecoder.java,1.114165,0.000000,0.000000,0.000000,0.000000,0.000000,0.000000,0.000000,0.000000,0.000000,0.000000,0.136969,0.173827,0.342896,0.611120,0.658236,0.372287,0.657895,0.409606,0.000000,0.000000,YES
1.2.0,src/java/org/apache/avro/io/ValidatingEncoder.java,0.927434,0.000000,0.000000,0.000000,0.000000,0.000000,0.000000,0.000000,0.000000,0.000000,0.000000,0.136969,0.173827,0.342896,0.611120,0.657279,0.443198,0.328948,0.081921,0.000000,0.000000,YES
1.2.0,src/java/org/apache/avro/ipc/DatagramServer.java,0.280097,0.556751,0.487176,0.000000,1.265598,0.205320,0.304241,0.527105,0.332877,0.567664,0.942114,0.462269,0.294169,0.495974,0.758632,0.782655,0.319103,0.657895,0.122882,0.000000,0.000000,NO
1.2.0,src/java/org/apache/avro/ipc/DatagramTransceiver.java,0.336117,0.687751,0.487176,0.000000,1.265598,0.958161,1.419791,2.459823,0.873802,1.490119,2.473050,0.019755,0.040114,0.148368,0.438704,0.490771,0.372287,0.657895,0.122882,0.000000,0.000000,NO
1.2.0,src/java/org/apache/avro/ipc/HttpServer.java,0.186732,0.908813,0.974352,0.000000,1.265598,0.969568,1.284573,1.244553,0.967424,1.348203,1.369010,0.013170,0.013371,0.049456,0.425294,0.469688,0.354559,0.328948,0.081921,0.000000,0.000000,NO
1.2.0,src/java/org/apache/avro/ipc/HttpTransceiver.java,0.516624,0.998876,1.461528,0.000000,1.265598,1.368802,1.960663,1.171344,1.227484,2.057783,1.158016,0.018438,0.013371,0.046159,0.425294,0.475137,0.390015,0.986843,0.245764,0.000000,0.000000,NO
1.2.0,src/java/org/apache/avro/ipc/ResponderServlet.java,0.186732,0.982501,0.974352,0.000000,1.265598,1.003788,1.284573,1.288479,0.998631,1.348203,1.413172,0.013170,0.013371,0.049456,0.425294,0.468697,0.319103,0.328948,0.040961,0.000000,0.000000,NO
1.2.0,src/java/org/apache/avro/ipc/Server.java,0.031122,0.106438,0.487176,0.000000,1.265598,0.091253,0.135218,0.234269,0.031207,0.053219,0.088323,0.429344,0.294169,0.537423,0.758632,0.796450,0.354559,0.000000,0.000000,0.000000,0.000000,NO
1.2.0,src/java/org/apache/avro/reflect/FixedSize.java,0.074693,0.000000,0.000000,0.531930,0.000000,0.000000,0.000000,0.000000,0.000000,0.000000,0.000000,0.414857,0.294169,0.519289,0.758632,0.806199,0.390015,0.000000,0.000000,0.000000,0.000000,NO
1.2.0,src/java/org/apache/avro/reflect/ReflectDatumWriter.java,0.248976,0.065500,0.487176,1.595789,1.265598,0.091253,0.135218,0.234269,0.083219,0.141916,0.235529,0.647967,0.294169,0.304155,0.758632,0.777091,0.372287,0.328948,0.040961,0.000000,0.000000,YES
1.2.0,src/java/org/apache/avro/specific/SchemaTask.java,0.049795,0.032750,0.487176,0.000000,1.265598,0.022813,0.033805,0.058567,0.000000,0.000000,0.000000,0.416174,0.294169,0.520938,0.758632,0.830262,0.319103,0.000000,0.000000,0.000000,0.000000,NO
1.2.0,src/java/org/apache/avro/specific/SpecificDatumReader.java,0.130712,0.098250,0.487176,0.531930,1.265598,0.057033,0.084511,0.146418,0.020805,0.035479,0.058882,0.525486,0.294169,0.358782,0.758632,0.830864,0.319103,0.000000,0.000000,0.000000,0.000000,YES
1.2.0,src/java/org/apache/avro/specific/SpecificFixed.java,0.049795,0.000000,0.000000,0.000000,0.000000,0.000000,0.000000,0.000000,0.000000,0.000000,0.000000,0.406955,0.294169,0.509398,0.758632,0.835020,0.319103,0.000000,0.000000,0.000000,0.000000,NO
1.2.0,src/java/org/apache/avro/specific/SpecificRecord.java,0.037346,0.000000,0.000000,0.000000,0.000000,0.000000,0.000000,0.000000,0.000000,0.000000,0.000000,0.442514,0.294169,0.553908,0.758632,0.827676,0.336831,0.000000,0.000000,0.000000,0.000000,YES
1.2.0,src/java/org/apache/avro/specific/SpecificRequestor.java,0.292546,0.016375,0.487176,0.531930,1.265598,0.011407,0.016902,0.029284,0.000000,0.000000,0.000000,0.512316,0.294169,0.384768,0.758632,0.785126,0.372287,0.000000,0.000000,0.000000,0.000000,NO
1.2.0,src/java/org/apache/avro/specific/SpecificResponder.java,0.099590,0.016375,0.487176,0.531930,1.265598,0.011407,0.016902,0.029284,0.000000,0.000000,0.000000,0.458318,0.294169,0.491735,0.758632,0.826993,0.319103,0.000000,0.000000,0.000000,0.000000,YES
1.3.0,lang/java/src/java/org/apache/avro/SchemaParseException.java,0.031122,0.000000,0.487176,0.000000,1.265598,0.000000,0.000000,0.000000,0.000000,0.000000,0.000000,0.952196,1.160631,1.191892,0.758632,0.840184,0.319103,0.000000,0.000000,0.000000,0.000000,NO
1.3.0,lang/java/src/java/org/apache/avro/AvroRuntimeException.java,0.049795,0.024563,0.974352,0.000000,1.265598,0.034220,0.050707,0.043925,0.031207,0.053219,0.044162,0.964049,1.160631,1.034339,0.758632,0.821310,0.319103,0.000000,0.000000,0.000000,0.000000,NO
1.3.0,lang/java/src/java/org/apache/avro/ipc/stats/StatsServlet.java,0.423258,0.876063,0.974352,0.000000,1.265598,1.220515,1.808543,1.566673,1.113057,1.898128,1.575098,0.587385,1.160631,2.205742,0.233720,0.261459,0.443198,0.328948,0.122882,0.000000,0.000000,NO
1.3.0,lang/java/src/java/org/apache/avro/ipc/stats/FloatHistogram.java,0.168058,0.384813,1.461528,0.531930,1.265598,0.307980,0.439459,0.263552,0.072817,0.124177,0.068696,0.633480,1.160631,0.951535,0.507671,0.420651,0.390015,0.328948,0.081921,0.000000,0.000000,NO
1.3.0,lang/java/src/java/org/apache/avro/ipc/stats/Histogram.java,0.796722,1.678439,0.974352,0.000000,1.265598,2.338369,3.464965,3.001570,2.132493,3.636600,3.017710,0.587385,1.160631,2.205742,0.233720,0.261459,0.921853,0.657895,0.327685,0.000000,0.000000,NO
1.3.0,lang/java/src/java/org/apache/avro/ipc/stats/StatsPlugin.java,0.466829,0.990688,0.974352,0.000000,1.265598,1.380208,2.045175,1.771658,1.258691,2.146481,1.781185,0.587385,1.160631,2.205742,0.233720,0.261459,0.620478,0.328948,0.081921,0.000000,0.000000,NO
1.3.0,lang/java/src/java/org/apache/avro/ipc/stats/Stopwatch.java,0.236527,0.605876,0.974352,0.000000,1.265598,0.844094,1.250768,1.083494,0.769778,1.312724,1.089320,0.587385,1.160631,2.205742,0.233720,0.261459,0.496382,0.657895,0.163843,0.000000,0.000000,NO
1.3.0,lang/java/src/java/org/apache/avro/ipc/Server.java,0.031122,0.000000,0.487176,0.000000,1.265598,0.000000,0.000000,0.000000,0.000000,0.000000,0.000000,1.000925,1.160631,1.073904,0.758632,0.796450,0.354559,0.000000,0.000000,0.000000,0.000000,NO
1.3.0,lang/java/src/java/org/apache/avro/ipc/LocalTransceiver.java,0.168058,0.319313,1.461528,0.000000,1.265598,0.273760,0.371850,0.234269,0.093622,0.141916,0.088323,0.989072,1.160631,0.928538,0.758632,0.705508,0.319103,0.000000,0.000000,0.000000,0.000000,NO
1.3.0,lang/java/src/java/org/apache/avro/ipc/ResponderServlet.java,0.186732,0.000000,0.487176,0.000000,1.265598,0.000000,0.000000,0.000000,0.000000,0.000000,0.000000,0.584751,1.160631,1.463900,0.425294,0.468697,0.319103,0.328948,0.040961,0.000000,0.000000,NO
1.3.0,lang/java/src/java/org/apache/avro/ipc/HttpServer.java,0.186732,0.000000,0.487176,0.000000,1.265598,0.000000,0.000000,0.000000,0.000000,0.000000,0.000000,0.584751,1.160631,1.463900,0.425294,0.469688,0.354559,0.328948,0.081921,0.000000,0.000000,NO
1.3.0,lang/java/src/java/org/apache/avro/specific/FixedSize.java,0.074693,0.016375,0.974352,0.531930,1.265598,0.011407,0.016902,0.014642,0.000000,0.000000,0.000000,1.010144,1.160631,0.948321,0.758632,0.799012,0.390015,0.000000,0.000000,0.000000,0.000000,NO
1.3.0,lang/java/src/java/org/apache/avro/specific/SchemaTask.java,0.049795,0.000000,0.487176,0.000000,1.265598,0.000000,0.000000,0.000000,0.000000,0.000000,0.000000,0.987755,1.160631,1.059774,0.758632,0.830262,0.319103,0.000000,0.000000,0.000000,0.000000,NO
1.3.0,lang/java/src/java/org/apache/avro/specific/SpecificRecord.java,0.024898,0.049125,0.974352,0.531930,1.265598,0.022813,0.033805,0.029284,0.020805,0.035479,0.029441,1.032533,1.160631,0.969340,0.758632,0.791919,0.336831,0.000000,0.000000,0.000000,0.000000,NO
1.3.0,lang/java/src/java/org/apache/avro/specific/SpecificFixed.java,0.043571,0.008188,0.974352,0.000000,1.265598,0.000000,0.000000,0.000000,0.010402,0.017740,0.014721,1.002242,1.160631,0.940902,0.758632,0.830701,0.319103,0.000000,0.000000,0.000000,0.000000,NO
1.3.0,lang/java/src/java/org/apache/avro/specific/SpecificRequestor.java,0.429483,0.466688,1.948704,0.531930,2.531197,0.467674,0.625384,0.300157,0.280865,0.461227,0.198727,1.153698,1.160631,0.618908,0.758632,0.698515,0.372287,0.328948,0.040961,0.000000,0.000000,YES
1.3.0,lang/java/src/java/org/apache/avro/specific/SpecificResponder.java,0.466829,0.728688,2.435880,1.063860,2.531197,0.889721,1.081745,0.456824,0.717766,1.082110,0.406287,1.119456,1.160631,0.700628,0.758632,0.657472,0.319103,0.657895,0.245764,0.000000,0.000000,YES
1.3.0,lang/java/src/java/org/apache/avro/io/ValidatingDecoder.java,1.126614,0.098250,2.923057,0.531930,2.531197,0.079847,0.033805,0.034164,0.062414,0.035479,0.029441,0.778351,1.160631,0.649523,0.611120,0.650660,0.372287,0.657895,0.409606,0.000000,0.000000,NO
1.3.0,lang/java/src/java/org/apache/avro/io/ValidatingEncoder.java,0.927434,0.065500,2.435880,1.063860,2.531197,0.045627,0.016902,0.023427,0.000000,0.000000,0.000000,0.766498,1.160631,0.719586,0.611120,0.649381,0.443198,0.328948,0.081921,0.000000,0.000000,NO
1.3.0,lang/java/src/java/org/apache/avro/io/DirectBinaryDecoder.java,0.958556,1.965002,1.948704,0.000000,2.531197,0.809874,0.625384,0.519784,1.206679,1.898128,0.853791,0.757279,1.160631,0.710931,0.614952,0.471128,0.478654,0.986843,0.614410,0.000000,0.000000,NO
1.3.0,lang/java/src/java/org/apache/avro/io/DecoderFactory.java,0.473053,1.899502,0.487176,0.000000,1.265598,2.646350,3.921327,6.793797,2.413358,4.115567,6.830330,0.031608,0.064182,0.237389,0.153259,0.171448,2.535095,0.986843,0.327685,0.000000,0.000000,NO
1.3.0,lang/java/src/java/org/apache/avro/io/Encoder.java,0.224078,0.065500,0.974352,0.000000,1.265598,0.022813,0.033805,0.029284,0.041610,0.070958,0.058882,1.028582,1.160631,0.858338,0.758632,0.749536,3.705139,0.000000,0.000000,0.000000,0.000000,NO
1.3.0,lang/java/src/java/org/apache/avro/io/Decoder.java,0.199180,0.073688,0.974352,0.000000,1.265598,0.091253,0.135218,0.117134,0.072817,0.124177,0.103044,1.101017,1.160631,0.689088,0.758632,0.752930,4.006514,0.000000,0.000000,0.000000,0.000000,NO
1.3.0,lang/java/src/java/org/apache/avro/io/DatumWriter.java,0.043571,0.000000,0.487176,0.000000,1.265598,0.000000,0.000000,0.000000,0.000000,0.000000,0.000000,1.011461,1.160631,1.085208,0.758632,0.838324,0.407743,0.000000,0.000000,0.000000,0.000000,NO
1.3.0,lang/java/src/java/org/apache/avro/io/JsonEncoder.java,1.207531,0.229250,2.923057,1.595789,2.531197,0.193914,0.202827,0.082970,0.062414,0.106437,0.029441,0.775717,1.160631,0.582593,0.559395,0.583007,0.372287,0.986843,0.573449,0.000000,0.000000,NO
1.3.0,lang/java/src/java/org/apache/avro/io/DatumReader.java,0.043571,0.000000,0.487176,0.000000,1.265598,0.000000,0.000000,0.000000,0.000000,0.000000,0.000000,0.925856,1.160631,1.158921,0.758632,0.840892,0.425470,0.000000,0.000000,0.000000,0.000000,NO
1.3.0,lang/java/src/java/org/apache/avro/io/ParsingDecoder.java,0.292546,0.000000,0.487176,0.000000,1.265598,0.000000,0.000000,0.000000,0.000000,0.000000,0.000000,0.687477,1.160631,1.721072,0.559395,0.625615,0.336831,3.947372,0.532488,0.000000,0.000000,NO
1.3.0,lang/java/src/java/org/apache/avro/generic/GenericArray.java,0.043571,0.000000,0.487176,0.000000,1.265598,0.000000,0.000000,0.000000,0.000000,0.000000,0.000000,1.014095,1.160631,1.088034,0.758632,0.840060,0.425470,0.000000,0.000000,0.000000,0.000000,NO
1.3.0,lang/java/src/java/org/apache/avro/generic/IndexedRecord.java,0.031122,0.180125,1.461528,0.531930,1.265598,0.136880,0.169023,0.117134,0.104024,0.106437,0.098137,1.008827,1.160631,0.947084,0.758632,0.708629,0.354559,0.000000,0.000000,0.000000,0.000000,NO
1.3.0,lang/java/src/java/org/apache/avro/generic/GenericFixed.java,0.024898,0.000000,0.487176,0.000000,1.265598,0.000000,0.000000,0.000000,0.000000,0.000000,0.000000,0.973268,1.160631,1.218269,0.758632,0.832575,0.336831,0.000000,0.000000,0.000000,0.000000,NO
1.3.0,lang/java/src/java/org/apache/avro/generic/GenericDatumWriter.java,0.778049,0.171938,2.923057,2.127719,2.531197,0.148287,0.118316,0.063448,0.072817,0.106437,0.034348,1.183989,1.160631,0.494011,0.758632,0.782301,0.833213,0.657895,0.696331,0.000000,0.000000,NO
1.3.0,lang/java/src/java/org/apache/avro/generic/GenericResponder.java,0.168058,0.049125,0.974352,0.000000,1.265598,0.034220,0.050707,0.043925,0.000000,0.000000,0.000000,1.027265,1.160631,0.964394,0.758632,0.823931,0.319103,0.000000,0.000000,0.000000,0.000000,YES
1.3.0,lang/java/src/java/org/apache/avro/generic/GenericContainer.java,0.031122,0.000000,0.487176,0.000000,1.265598,0.000000,0.000000,0.000000,0.000000,0.000000,0.000000,0.979853,1.160631,1.226511,0.758632,0.820878,0.336831,0.000000,0.000000,0.000000,0.000000,NO
1.3.0,lang/java/src/java/org/apache/avro/generic/GenericRecord.java,0.031122,0.188313,1.461528,0.531930,1.265598,0.148287,0.169023,0.126896,0.093622,0.106437,0.088323,1.008827,1.160631,0.947084,0.758632,0.704349,0.372287,0.000000,0.000000,0.000000,0.000000,NO
1.3.0,lang/java/src/java/org/apache/avro/AvroTypeException.java,0.043571,0.024563,0.974352,0.000000,1.265598,0.034220,0.050707,0.043925,0.031207,0.053219,0.044162,0.993023,1.160631,1.065426,0.758632,0.825590,0.319103,0.000000,0.000000,0.000000,0.000000,NO
1.3.0,lang/java/src/java/org/apache/avro/tool/JsonToBinaryFragmentTool.java,0.323668,0.630438,0.974352,0.000000,1.265598,0.878314,1.301475,1.127419,0.800985,1.365942,1.133481,0.588702,1.160631,2.210688,0.250962,0.280747,0.319103,0.328948,0.122882,0.000000,0.000000,NO
1.3.0,lang/java/src/java/org/apache/avro/tool/DataFileReadTool.java,0.304995,0.671376,1.461528,0.000000,1.265598,0.912534,1.335279,0.780896,0.832192,1.401421,0.785095,0.604506,1.160631,1.513357,0.250962,0.280668,0.372287,0.328948,0.081921,0.000000,0.000000,NO
1.3.0,lang/java/src/java/org/apache/avro/tool/RpcSendTool.java,0.566419,1.219939,1.461528,0.000000,1.265598,1.551308,1.656422,1.327524,1.279496,1.738472,1.207084,0.601872,1.160631,1.506762,0.249046,0.252930,0.354559,0.657895,0.163843,0.000000,0.000000,NO
1.3.0,lang/java/src/java/org/apache/avro/tool/Tool.java,0.056019,0.417563,2.923057,0.000000,1.265598,0.433454,0.338045,0.185463,0.280865,0.301572,0.132485,0.996974,1.160631,0.680696,0.758632,0.649498,0.673662,0.000000,0.000000,0.000000,0.000000,NO
1.3.0,lang/java/src/java/org/apache/avro/tool/GenAvroTool.java,0.286322,0.655001,1.461528,0.000000,1.265598,0.901128,1.318377,0.771135,0.811388,1.383682,0.765468,0.612408,1.160631,1.533139,0.249046,0.277907,0.372287,0.328948,0.122882,0.000000,0.000000,NO
1.3.0,lang/java/src/java/org/apache/avro/tool/RpcReceiveTool.java,0.840292,1.604752,1.461528,0.000000,1.265598,2.121642,2.366318,1.815584,1.830823,2.483532,1.727210,0.601872,1.160631,1.506762,0.249046,0.257173,0.407743,0.657895,0.368646,0.000000,0.000000,NO
1.3.0,lang/java/src/java/org/apache/avro/tool/DataFileGetSchemaTool.java,0.186732,0.835126,2.923057,0.000000,1.265598,0.741434,0.473264,0.317239,0.312072,0.301572,0.147205,1.002242,1.160631,0.684293,0.758632,0.542985,0.319103,0.328948,0.040961,0.000000,0.000000,NO
1.3.0,lang/java/src/java/org/apache/avro/tool/Main.java,0.379688,1.023439,4.871761,0.000000,2.531197,1.266141,0.980332,0.325048,1.009033,1.028892,0.285578,0.676941,1.160631,0.508409,0.373569,0.354830,0.425470,0.657895,0.245764,0.000000,0.000000,NO
1.3.0,lang/java/src/java/org/apache/avro/tool/Util.java,0.224078,0.458500,1.948704,0.000000,1.265598,0.558927,0.304241,0.358724,0.436901,0.319311,0.309131,1.035167,1.160631,0.777450,0.758632,0.619059,0.514110,0.328948,0.040961,0.000000,0.000000,NO
1.3.0,lang/java/src/java/org/apache/avro/tool/BinaryFragmentToJsonTool.java,0.385912,0.728688,1.461528,0.000000,1.265598,0.992381,1.419791,0.849225,0.884204,1.490119,0.834164,0.620310,1.160631,1.552921,0.250962,0.274606,0.319103,0.328948,0.122882,0.000000,0.000000,NO
1.3.0,lang/java/src/java/org/apache/avro/tool/DataFileWriteTool.java,0.429483,0.917001,1.948704,0.000000,2.531197,1.197701,1.385986,0.768695,1.019436,1.454640,0.721306,0.625578,1.160631,1.174582,0.250962,0.269228,0.319103,0.657895,0.163843,0.000000,0.000000,NO
1.3.0,lang/java/src/java/org/apache/avro/file/LengthLimitedInputStream.java,0.329893,0.695938,0.487176,0.000000,1.265598,0.969568,1.436693,2.489107,0.884204,1.507858,2.502491,0.021072,0.042788,0.158260,0.206900,0.231455,0.390015,0.657895,0.204803,0.000000,0.000000,NO
1.3.0,lang/java/src/java/org/apache/avro/file/Codec.java,0.099590,0.597688,2.923057,0.000000,2.531197,0.501894,0.338045,0.214746,0.197646,0.230614,0.093230,1.031216,1.160631,0.774482,0.758632,0.573268,0.567294,0.000000,0.000000,0.000000,0.000000,NO
1.3.0,lang/java/src/java/org/apache/avro/file/DeflateCodec.java,0.622439,1.825814,2.435880,0.000000,2.531197,2.098829,1.757836,1.077637,1.633178,1.844909,0.924450,0.088239,0.064182,0.132542,0.206900,0.205546,0.549566,0.657895,0.409606,0.000000,0.000000,NO
1.3.0,lang/java/src/java/org/apache/avro/file/SeekableFileInput.java,0.080917,0.016375,0.974352,0.000000,1.265598,0.022813,0.033805,0.029284,0.020805,0.035479,0.029441,0.953513,1.160631,1.193540,0.758632,0.828404,0.319103,0.000000,0.000000,0.000000,0.000000,NO
1.3.0,lang/java/src/java/org/apache/avro/file/CodecFactory.java,0.224078,0.622251,0.974352,0.000000,2.531197,0.866908,1.183159,1.112777,0.790583,1.241766,1.118761,0.032925,0.042788,0.123640,0.206900,0.226718,0.496382,0.328948,0.040961,0.000000,0.000000,NO
1.3.0,lang/java/src/java/org/apache/avro/file/DataFileConstants.java,0.087141,0.098250,1.948704,0.531930,2.531197,0.068440,0.067609,0.043925,0.020805,0.017740,0.014721,0.986438,1.160631,0.823169,0.758632,0.706376,0.354559,0.000000,0.000000,0.000000,0.000000,NO
1.3.0,lang/java/src/java/org/apache/avro/file/SeekableInput.java,0.049795,0.000000,0.487176,0.531930,1.265598,0.000000,0.000000,0.000000,0.000000,0.000000,0.000000,0.960098,1.160631,1.201783,0.758632,0.825258,0.390015,0.000000,0.000000,0.000000,0.000000,NO
1.3.0,lang/java/src/java/org/apache/avro/file/NullCodec.java,0.217854,1.154439,3.897409,0.000000,2.531197,0.923941,0.422557,0.296497,0.218450,0.141916,0.077283,1.077311,1.160631,0.622386,0.758632,0.514721,0.336831,0.328948,0.040961,0.000000,0.000000,NO
1.3.0,lang/java/src/java/org/apache/avro/file/DataFileStream.java,1.170185,3.144003,3.410233,0.531930,2.531197,3.718578,2.991702,1.363779,2.871064,3.139893,1.160820,0.667722,1.160631,0.716407,0.249046,0.230200,1.028220,0.986843,1.024016,0.000000,0.000000,NO
1.3.0,lang/java/src/java/org/apache/avro/reflect/InduceSchemaTool.java,0.304995,0.769626,2.923057,0.000000,2.531197,0.969568,0.997234,0.414851,0.811388,1.046631,0.382734,0.607140,1.160631,0.759975,0.327591,0.355459,0.354559,0.986843,0.204803,0.000000,0.000000,NO
1.3.0,lang/java/src/java/org/apache/avro/reflect/Union.java,0.074693,0.212875,1.948704,0.531930,1.265598,0.159694,0.118316,0.102493,0.020805,0.035479,0.014721,1.028582,1.160631,0.772504,0.758632,0.719369,0.443198,0.000000,0.000000,0.000000,0.000000,NO
1.3.0,lang/java/src/java/org/apache/avro/reflect/Stringable.java,0.062244,0.122813,1.461528,1.063860,1.265598,0.068440,0.084511,0.058567,0.031207,0.053219,0.029441,1.021997,1.160631,0.852843,0.758632,0.751900,0.390015,0.000000,0.000000,0.000000,0.000000,NO
1.3.0,lang/java/src/java/org/apache/avro/reflect/ReflectDatumWriter.java,0.541522,0.941563,3.897409,2.659649,1.265598,0.946754,0.709895,0.303817,0.759376,0.745059,0.268650,1.323592,1.160631,0.414195,0.758632,0.664412,0.425470,0.328948,0.245764,0.000000,0.000000,NO
1.3.1,lang/java/src/java/org/apache/avro/SchemaParseException.java,0.031122,0.000000,0.000000,0.000000,0.000000,0.000000,0.000000,0.000000,0.000000,0.000000,0.000000,0.952196,1.160631,1.191892,0.758632,0.840184,0.319103,0.000000,0.000000,0.000000,0.000000,NO
1.3.1,lang/java/src/java/org/apache/avro/AvroRuntimeException.java,0.049795,0.000000,0.000000,0.000000,0.000000,0.000000,0.000000,0.000000,0.000000,0.000000,0.000000,0.964049,1.160631,1.034339,0.758632,0.821310,0.319103,0.000000,0.000000,0.000000,0.000000,NO
1.3.1,lang/java/src/java/org/apache/avro/ipc/stats/StatsServlet.java,0.423258,0.000000,0.000000,0.000000,0.000000,0.000000,0.000000,0.000000,0.000000,0.000000,0.000000,0.587385,1.160631,2.205742,0.233720,0.261459,0.443198,0.328948,0.122882,0.000000,0.000000,NO
1.3.1,lang/java/src/java/org/apache/avro/ipc/stats/FloatHistogram.java,0.168058,0.000000,0.000000,0.531930,0.000000,0.000000,0.000000,0.000000,0.000000,0.000000,0.000000,0.633480,1.160631,0.951535,0.507671,0.420651,0.390015,0.328948,0.081921,0.000000,0.000000,NO
1.3.1,lang/java/src/java/org/apache/avro/ipc/Server.java,0.031122,0.000000,0.000000,0.000000,0.000000,0.000000,0.000000,0.000000,0.000000,0.000000,0.000000,1.000925,1.160631,1.073904,0.758632,0.796450,0.354559,0.000000,0.000000,0.000000,0.000000,NO
1.3.1,lang/java/src/java/org/apache/avro/ipc/LocalTransceiver.java,0.168058,0.000000,0.000000,0.000000,0.000000,0.000000,0.000000,0.000000,0.000000,0.000000,0.000000,0.989072,1.160631,0.928538,0.758632,0.705508,0.319103,0.000000,0.000000,0.000000,0.000000,NO
1.3.1,lang/java/src/java/org/apache/avro/ipc/ResponderServlet.java,0.186732,0.000000,0.000000,0.000000,0.000000,0.000000,0.000000,0.000000,0.000000,0.000000,0.000000,0.584751,1.160631,1.463900,0.425294,0.468697,0.319103,0.328948,0.040961,0.000000,0.000000,NO
1.3.1,lang/java/src/java/org/apache/avro/ipc/HttpServer.java,0.186732,0.000000,0.000000,0.000000,0.000000,0.000000,0.000000,0.000000,0.000000,0.000000,0.000000,0.584751,1.160631,1.463900,0.425294,0.469688,0.354559,0.328948,0.081921,0.000000,0.000000,NO
1.3.1,lang/java/src/java/org/apache/avro/specific/FixedSize.java,0.074693,0.000000,0.000000,0.531930,0.000000,0.000000,0.000000,0.000000,0.000000,0.000000,0.000000,1.010144,1.160631,0.948321,0.758632,0.799012,0.390015,0.000000,0.000000,0.000000,0.000000,NO
1.3.1,lang/java/src/java/org/apache/avro/specific/SchemaTask.java,0.049795,0.000000,0.000000,0.000000,0.000000,0.000000,0.000000,0.000000,0.000000,0.000000,0.000000,0.987755,1.160631,1.059774,0.758632,0.830262,0.319103,0.000000,0.000000,0.000000,0.000000,NO
1.3.1,lang/java/src/java/org/apache/avro/specific/SpecificRecord.java,0.024898,0.000000,0.000000,0.531930,0.000000,0.000000,0.000000,0.000000,0.000000,0.000000,0.000000,1.032533,1.160631,0.969340,0.758632,0.791919,0.336831,0.000000,0.000000,0.000000,0.000000,NO
1.3.1,lang/java/src/java/org/apache/avro/specific/SpecificFixed.java,0.043571,0.000000,0.000000,0.000000,0.000000,0.000000,0.000000,0.000000,0.000000,0.000000,0.000000,1.002242,1.160631,0.940902,0.758632,0.830701,0.319103,0.000000,0.000000,0.000000,0.000000,NO
1.3.1,lang/java/src/java/org/apache/avro/io/ValidatingDecoder.java,1.126614,0.000000,0.000000,0.531930,0.000000,0.000000,0.000000,0.000000,0.000000,0.000000,0.000000,0.778351,1.160631,0.649523,0.611120,0.650660,0.372287,0.657895,0.409606,0.000000,0.000000,NO
1.3.1,lang/java/src/java/org/apache/avro/io/ValidatingEncoder.java,0.927434,0.000000,0.000000,1.063860,0.000000,0.000000,0.000000,0.000000,0.000000,0.000000,0.000000,0.766498,1.160631,0.719586,0.611120,0.649381,0.443198,0.328948,0.081921,0.000000,0.000000,NO
1.3.1,lang/java/src/java/org/apache/avro/io/DirectBinaryDecoder.java,0.958556,0.000000,0.000000,0.000000,0.000000,0.000000,0.000000,0.000000,0.000000,0.000000,0.000000,0.757279,1.160631,0.710931,0.614952,0.471128,0.478654,0.986843,0.614410,0.000000,0.000000,NO
1.3.1,lang/java/src/java/org/apache/avro/io/Encoder.java,0.224078,0.000000,0.000000,0.000000,0.000000,0.000000,0.000000,0.000000,0.000000,0.000000,0.000000,1.028582,1.160631,0.858338,0.758632,0.749536,3.705139,0.000000,0.000000,0.000000,0.000000,NO
1.3.1,lang/java/src/java/org/apache/avro/io/Decoder.java,0.199180,0.000000,0.000000,0.000000,0.000000,0.000000,0.000000,0.000000,0.000000,0.000000,0.000000,1.101017,1.160631,0.689088,0.758632,0.752930,4.006514,0.000000,0.000000,0.000000,0.000000,NO
1.3.1,lang/java/src/java/org/apache/avro/io/DatumWriter.java,0.043571,0.000000,0.000000,0.000000,0.000000,0.000000,0.000000,0.000000,0.000000,0.000000,0.000000,1.011461,1.160631,1.085208,0.758632,0.838324,0.407743,0.000000,0.000000,0.000000,0.000000,NO
1.3.1,lang/java/src/java/org/apache/avro/io/ResolvingDecoder.java,0.765600,0.000000,0.000000,0.531930,0.000000,0.000000,0.000000,0.000000,0.000000,0.000000,0.000000,0.844201,1.160631,0.452877,0.611120,0.519189,1.613242,1.973686,0.860174,0.000000,0.000000,NO
1.3.1,lang/java/src/java/org/apache/avro/io/JsonEncoder.java,1.207531,0.000000,0.000000,1.595789,0.000000,0.000000,0.000000,0.000000,0.000000,0.000000,0.000000,0.775717,1.160631,0.582593,0.559395,0.583007,0.372287,0.986843,0.573449,0.000000,0.000000,NO
1.3.1,lang/java/src/java/org/apache/avro/io/DatumReader.java,0.043571,0.000000,0.000000,0.000000,0.000000,0.000000,0.000000,0.000000,0.000000,0.000000,0.000000,0.925856,1.160631,1.158921,0.758632,0.840892,0.425470,0.000000,0.000000,0.000000,0.000000,NO
1.3.1,lang/java/src/java/org/apache/avro/io/ParsingDecoder.java,0.292546,0.000000,0.000000,0.000000,0.000000,0.000000,0.000000,0.000000,0.000000,0.000000,0.000000,0.687477,1.160631,1.721072,0.559395,0.625615,0.336831,3.947372,0.532488,0.000000,0.000000,NO
1.3.1,lang/java/src/java/org/apache/avro/generic/GenericArray.java,0.043571,0.000000,0.000000,0.000000,0.000000,0.000000,0.000000,0.000000,0.000000,0.000000,0.000000,1.014095,1.160631,1.088034,0.758632,0.840060,0.425470,0.000000,0.000000,0.000000,0.000000,NO
1.3.1,lang/java/src/java/org/apache/avro/generic/IndexedRecord.java,0.031122,0.000000,0.000000,0.531930,0.000000,0.000000,0.000000,0.000000,0.000000,0.000000,0.000000,1.008827,1.160631,0.947084,0.758632,0.708629,0.354559,0.000000,0.000000,0.000000,0.000000,NO
1.3.1,lang/java/src/java/org/apache/avro/generic/GenericFixed.java,0.024898,0.000000,0.000000,0.000000,0.000000,0.000000,0.000000,0.000000,0.000000,0.000000,0.000000,0.973268,1.160631,1.218269,0.758632,0.832575,0.336831,0.000000,0.000000,0.000000,0.000000,NO
1.3.1,lang/java/src/java/org/apache/avro/generic/GenericRequestor.java,0.261424,0.114625,0.487176,0.531930,1.265598,0.159694,0.236632,0.409971,0.145634,0.248353,0.412175,1.111554,1.160631,0.758926,0.758632,0.772991,0.319103,0.657895,0.122882,0.000000,0.000000,NO
1.3.1,lang/java/src/java/org/apache/avro/generic/GenericResponder.java,0.180507,0.049125,0.487176,0.531930,1.265598,0.045627,0.067609,0.117134,0.020805,0.035479,0.058882,1.043069,1.160631,0.870427,0.758632,0.803686,0.319103,0.328948,0.040961,0.000000,0.000000,NO
1.3.1,lang/java/src/java/org/apache/avro/generic/GenericContainer.java,0.031122,0.000000,0.000000,0.000000,0.000000,0.000000,0.000000,0.000000,0.000000,0.000000,0.000000,0.979853,1.160631,1.226511,0.758632,0.820878,0.336831,0.000000,0.000000,0.000000,0.000000,NO
1.3.1,lang/java/src/java/org/apache/avro/generic/GenericRecord.java,0.031122,0.000000,0.000000,0.531930,0.000000,0.000000,0.000000,0.000000,0.000000,0.000000,0.000000,1.008827,1.160631,0.947084,0.758632,0.704349,0.372287,0.000000,0.000000,0.000000,0.000000,NO
1.3.1,lang/java/src/java/org/apache/avro/AvroTypeException.java,0.043571,0.000000,0.000000,0.000000,0.000000,0.000000,0.000000,0.000000,0.000000,0.000000,0.000000,0.993023,1.160631,1.065426,0.758632,0.825590,0.319103,0.000000,0.000000,0.000000,0.000000,NO
1.3.1,lang/java/src/java/org/apache/avro/tool/DataFileReadTool.java,0.304995,0.000000,0.000000,0.000000,0.000000,0.000000,0.000000,0.000000,0.000000,0.000000,0.000000,0.604506,1.160631,1.513357,0.250962,0.280668,0.372287,0.328948,0.081921,0.000000,0.000000,NO
1.3.1,lang/java/src/java/org/apache/avro/tool/Tool.java,0.056019,0.000000,0.000000,0.000000,0.000000,0.000000,0.000000,0.000000,0.000000,0.000000,0.000000,0.996974,1.160631,0.680696,0.758632,0.649498,0.673662,0.000000,0.000000,0.000000,0.000000,NO
1.3.1,lang/java/src/java/org/apache/avro/tool/DataFileGetSchemaTool.java,0.186732,0.000000,0.000000,0.000000,0.000000,0.000000,0.000000,0.000000,0.000000,0.000000,0.000000,1.002242,1.160631,0.684293,0.758632,0.542985,0.319103,0.328948,0.040961,0.000000,0.000000,NO
1.3.1,lang/java/src/java/org/apache/avro/file/LengthLimitedInputStream.java,0.329893,0.000000,0.000000,0.000000,0.000000,0.000000,0.000000,0.000000,0.000000,0.000000,0.000000,0.021072,0.042788,0.158260,0.206900,0.231455,0.390015,0.657895,0.204803,0.000000,0.000000,NO
1.3.1,lang/java/src/java/org/apache/avro/file/Codec.java,0.099590,0.000000,0.000000,0.000000,0.000000,0.000000,0.000000,0.000000,0.000000,0.000000,0.000000,1.031216,1.160631,0.774482,0.758632,0.573268,0.567294,0.000000,0.000000,0.000000,0.000000,NO
1.3.1,lang/java/src/java/org/apache/avro/file/SeekableFileInput.java,0.080917,0.000000,0.000000,0.000000,0.000000,0.000000,0.000000,0.000000,0.000000,0.000000,0.000000,0.953513,1.160631,1.193540,0.758632,0.828404,0.319103,0.000000,0.000000,0.000000,0.000000,NO
1.3.1,lang/java/src/java/org/apache/avro/file/DataFileConstants.java,0.087141,0.000000,0.000000,0.531930,0.000000,0.000000,0.000000,0.000000,0.000000,0.000000,0.000000,0.986438,1.160631,0.823169,0.758632,0.706376,0.354559,0.000000,0.000000,0.000000,0.000000,NO
1.3.1,lang/java/src/java/org/apache/avro/file/SeekableInput.java,0.049795,0.000000,0.000000,0.531930,0.000000,0.000000,0.000000,0.000000,0.000000,0.000000,0.000000,0.960098,1.160631,1.201783,0.758632,0.825258,0.390015,0.000000,0.000000,0.000000,0.000000,NO
1.3.1,lang/java/src/java/org/apache/avro/reflect/ReflectRequestor.java,0.267649,0.000000,0.000000,0.000000,0.000000,0.000000,0.000000,0.000000,0.000000,0.000000,0.000000,1.144479,1.160631,0.661190,0.758632,0.740233,0.372287,0.000000,0.000000,0.000000,0.000000,NO
1.3.1,lang/java/src/java/org/apache/avro/reflect/Union.java,0.074693,0.000000,0.000000,0.531930,0.000000,0.000000,0.000000,0.000000,0.000000,0.000000,0.000000,1.028582,1.160631,0.772504,0.758632,0.719369,0.443198,0.000000,0.000000,0.000000,0.000000,NO
1.3.1,lang/java/src/java/org/apache/avro/reflect/ReflectResponder.java,0.136937,0.000000,0.000000,0.531930,0.000000,0.000000,0.000000,0.000000,0.000000,0.000000,0.000000,1.243254,1.160631,0.583582,0.758632,0.745376,0.319103,0.000000,0.000000,0.000000,0.000000,NO
1.3.1,lang/java/src/java/org/apache/avro/reflect/Stringable.java,0.062244,0.000000,0.000000,1.063860,0.000000,0.000000,0.000000,0.000000,0.000000,0.000000,0.000000,1.021997,1.160631,0.852843,0.758632,0.751900,0.390015,0.000000,0.000000,0.000000,0.000000,NO
1.3.1,lang/java/src/java/org/apache/avro/reflect/Nullable.java,0.062244,0.090063,0.487176,1.063860,1.265598,0.057033,0.084511,0.146418,0.010402,0.017740,0.029441,1.028582,1.160631,0.772504,0.758632,0.704610,0.372287,0.000000,0.000000,0.000000,0.000000,NO
1.3.2,lang/java/src/java/org/apache/avro/SchemaParseException.java,0.031122,0.000000,0.000000,0.000000,0.000000,0.000000,0.000000,0.000000,0.000000,0.000000,0.000000,0.952196,1.160631,1.191892,0.758632,0.840184,0.319103,0.000000,0.000000,0.000000,0.000000,NO
1.3.2,lang/java/src/java/org/apache/avro/AvroRuntimeException.java,0.049795,0.000000,0.000000,0.000000,0.000000,0.000000,0.000000,0.000000,0.000000,0.000000,0.000000,0.964049,1.160631,1.034339,0.758632,0.821310,0.319103,0.000000,0.000000,0.000000,0.000000,NO
1.3.2,lang/java/src/java/org/apache/avro/ipc/stats/StatsServlet.java,0.423258,0.000000,0.000000,0.000000,0.000000,0.000000,0.000000,0.000000,0.000000,0.000000,0.000000,0.587385,1.160631,2.205742,0.233720,0.261459,0.443198,0.328948,0.122882,0.000000,0.000000,NO
1.3.2,lang/java/src/java/org/apache/avro/ipc/stats/FloatHistogram.java,0.168058,0.000000,0.000000,0.531930,0.000000,0.000000,0.000000,0.000000,0.000000,0.000000,0.000000,0.633480,1.160631,0.951535,0.507671,0.420651,0.390015,0.328948,0.081921,0.000000,0.000000,NO
1.3.2,lang/java/src/java/org/apache/avro/ipc/Server.java,0.031122,0.000000,0.000000,0.000000,0.000000,0.000000,0.000000,0.000000,0.000000,0.000000,0.000000,1.000925,1.160631,1.073904,0.758632,0.796450,0.354559,0.000000,0.000000,0.000000,0.000000,NO
1.3.2,lang/java/src/java/org/apache/avro/ipc/LocalTransceiver.java,0.168058,0.000000,0.000000,0.000000,0.000000,0.000000,0.000000,0.000000,0.000000,0.000000,0.000000,0.989072,1.160631,0.928538,0.758632,0.705508,0.319103,0.000000,0.000000,0.000000,0.000000,NO
1.3.2,lang/java/src/java/org/apache/avro/ipc/ResponderServlet.java,0.186732,0.000000,0.000000,0.000000,0.000000,0.000000,0.000000,0.000000,0.000000,0.000000,0.000000,0.584751,1.160631,1.463900,0.425294,0.468697,0.319103,0.328948,0.040961,0.000000,0.000000,NO
1.3.2,lang/java/src/java/org/apache/avro/ipc/HttpServer.java,0.186732,0.000000,0.000000,0.000000,0.000000,0.000000,0.000000,0.000000,0.000000,0.000000,0.000000,0.584751,1.160631,1.463900,0.425294,0.469688,0.354559,0.328948,0.081921,0.000000,0.000000,NO
1.3.2,lang/java/src/java/org/apache/avro/specific/FixedSize.java,0.074693,0.000000,0.000000,0.531930,0.000000,0.000000,0.000000,0.000000,0.000000,0.000000,0.000000,1.010144,1.160631,0.948321,0.758632,0.799012,0.390015,0.000000,0.000000,0.000000,0.000000,NO
1.3.2,lang/java/src/java/org/apache/avro/specific/SchemaTask.java,0.049795,0.000000,0.000000,0.000000,0.000000,0.000000,0.000000,0.000000,0.000000,0.000000,0.000000,0.987755,1.160631,1.059774,0.758632,0.830262,0.319103,0.000000,0.000000,0.000000,0.000000,NO
1.3.2,lang/java/src/java/org/apache/avro/specific/SpecificRecord.java,0.024898,0.000000,0.000000,0.531930,0.000000,0.000000,0.000000,0.000000,0.000000,0.000000,0.000000,1.032533,1.160631,0.969340,0.758632,0.791919,0.336831,0.000000,0.000000,0.000000,0.000000,NO
1.3.2,lang/java/src/java/org/apache/avro/specific/SpecificFixed.java,0.043571,0.000000,0.000000,0.000000,0.000000,0.000000,0.000000,0.000000,0.000000,0.000000,0.000000,1.002242,1.160631,0.940902,0.758632,0.830701,0.319103,0.000000,0.000000,0.000000,0.000000,NO
1.3.2,lang/java/src/java/org/apache/avro/io/ValidatingDecoder.java,1.126614,0.000000,0.000000,0.531930,0.000000,0.000000,0.000000,0.000000,0.000000,0.000000,0.000000,0.778351,1.160631,0.649523,0.611120,0.650660,0.372287,0.657895,0.409606,0.000000,0.000000,NO
1.3.2,lang/java/src/java/org/apache/avro/io/ValidatingEncoder.java,0.927434,0.000000,0.000000,1.063860,0.000000,0.000000,0.000000,0.000000,0.000000,0.000000,0.000000,0.766498,1.160631,0.719586,0.611120,0.649381,0.443198,0.328948,0.081921,0.000000,0.000000,NO
1.3.2,lang/java/src/java/org/apache/avro/io/DirectBinaryDecoder.java,0.958556,0.000000,0.000000,0.000000,0.000000,0.000000,0.000000,0.000000,0.000000,0.000000,0.000000,0.757279,1.160631,0.710931,0.614952,0.471128,0.478654,0.986843,0.614410,0.000000,0.000000,NO
1.3.2,lang/java/src/java/org/apache/avro/io/Encoder.java,0.224078,0.000000,0.000000,0.000000,0.000000,0.000000,0.000000,0.000000,0.000000,0.000000,0.000000,1.028582,1.160631,0.858338,0.758632,0.749536,3.705139,0.000000,0.000000,0.000000,0.000000,NO
1.3.2,lang/java/src/java/org/apache/avro/io/Decoder.java,0.199180,0.000000,0.000000,0.000000,0.000000,0.000000,0.000000,0.000000,0.000000,0.000000,0.000000,1.101017,1.160631,0.689088,0.758632,0.752930,4.006514,0.000000,0.000000,0.000000,0.000000,NO
1.3.2,lang/java/src/java/org/apache/avro/io/DatumWriter.java,0.043571,0.000000,0.000000,0.000000,0.000000,0.000000,0.000000,0.000000,0.000000,0.000000,0.000000,1.011461,1.160631,1.085208,0.758632,0.838324,0.407743,0.000000,0.000000,0.000000,0.000000,NO
1.3.2,lang/java/src/java/org/apache/avro/io/ResolvingDecoder.java,0.765600,0.000000,0.000000,0.531930,0.000000,0.000000,0.000000,0.000000,0.000000,0.000000,0.000000,0.844201,1.160631,0.452877,0.611120,0.519189,1.613242,1.973686,0.860174,0.000000,0.000000,YES
1.3.2,lang/java/src/java/org/apache/avro/io/JsonEncoder.java,1.207531,0.000000,0.000000,1.595789,0.000000,0.000000,0.000000,0.000000,0.000000,0.000000,0.000000,0.775717,1.160631,0.582593,0.559395,0.583007,0.372287,0.986843,0.573449,0.000000,0.000000,NO
1.3.2,lang/java/src/java/org/apache/avro/io/DatumReader.java,0.043571,0.000000,0.000000,0.000000,0.000000,0.000000,0.000000,0.000000,0.000000,0.000000,0.000000,0.925856,1.160631,1.158921,0.758632,0.840892,0.425470,0.000000,0.000000,0.000000,0.000000,NO
1.3.2,lang/java/src/java/org/apache/avro/io/ParsingDecoder.java,0.292546,0.000000,0.000000,0.000000,0.000000,0.000000,0.000000,0.000000,0.000000,0.000000,0.000000,0.687477,1.160631,1.721072,0.559395,0.625615,0.336831,3.947372,0.532488,0.000000,0.000000,NO
1.3.2,lang/java/src/java/org/apache/avro/generic/GenericArray.java,0.043571,0.000000,0.000000,0.000000,0.000000,0.000000,0.000000,0.000000,0.000000,0.000000,0.000000,1.014095,1.160631,1.088034,0.758632,0.840060,0.425470,0.000000,0.000000,0.000000,0.000000,NO
1.3.2,lang/java/src/java/org/apache/avro/generic/IndexedRecord.java,0.031122,0.000000,0.000000,0.531930,0.000000,0.000000,0.000000,0.000000,0.000000,0.000000,0.000000,1.008827,1.160631,0.947084,0.758632,0.708629,0.354559,0.000000,0.000000,0.000000,0.000000,NO
1.3.2,lang/java/src/java/org/apache/avro/generic/GenericFixed.java,0.024898,0.000000,0.000000,0.000000,0.000000,0.000000,0.000000,0.000000,0.000000,0.000000,0.000000,0.973268,1.160631,1.218269,0.758632,0.832575,0.336831,0.000000,0.000000,0.000000,0.000000,NO
1.3.2,lang/java/src/java/org/apache/avro/generic/GenericContainer.java,0.031122,0.000000,0.000000,0.000000,0.000000,0.000000,0.000000,0.000000,0.000000,0.000000,0.000000,0.979853,1.160631,1.226511,0.758632,0.820878,0.336831,0.000000,0.000000,0.000000,0.000000,NO
1.3.2,lang/java/src/java/org/apache/avro/generic/GenericRecord.java,0.031122,0.000000,0.000000,0.531930,0.000000,0.000000,0.000000,0.000000,0.000000,0.000000,0.000000,1.008827,1.160631,0.947084,0.758632,0.704349,0.372287,0.000000,0.000000,0.000000,0.000000,NO
1.3.2,lang/java/src/java/org/apache/avro/AvroTypeException.java,0.043571,0.000000,0.000000,0.000000,0.000000,0.000000,0.000000,0.000000,0.000000,0.000000,0.000000,0.993023,1.160631,1.065426,0.758632,0.825590,0.319103,0.000000,0.000000,0.000000,0.000000,NO
1.3.2,lang/java/src/java/org/apache/avro/tool/DataFileReadTool.java,0.304995,0.000000,0.000000,0.000000,0.000000,0.000000,0.000000,0.000000,0.000000,0.000000,0.000000,0.604506,1.160631,1.513357,0.250962,0.280668,0.372287,0.328948,0.081921,0.000000,0.000000,NO
1.3.2,lang/java/src/java/org/apache/avro/tool/Tool.java,0.056019,0.000000,0.000000,0.000000,0.000000,0.000000,0.000000,0.000000,0.000000,0.000000,0.000000,0.996974,1.160631,0.680696,0.758632,0.649498,0.673662,0.000000,0.000000,0.000000,0.000000,NO
1.3.2,lang/java/src/java/org/apache/avro/tool/DataFileGetSchemaTool.java,0.186732,0.000000,0.000000,0.000000,0.000000,0.000000,0.000000,0.000000,0.000000,0.000000,0.000000,1.002242,1.160631,0.684293,0.758632,0.542985,0.319103,0.328948,0.040961,0.000000,0.000000,NO
1.3.2,lang/java/src/java/org/apache/avro/file/LengthLimitedInputStream.java,0.329893,0.000000,0.000000,0.000000,0.000000,0.000000,0.000000,0.000000,0.000000,0.000000,0.000000,0.021072,0.042788,0.158260,0.206900,0.231455,0.390015,0.657895,0.204803,0.000000,0.000000,NO
1.3.2,lang/java/src/java/org/apache/avro/file/Codec.java,0.099590,0.000000,0.000000,0.000000,0.000000,0.000000,0.000000,0.000000,0.000000,0.000000,0.000000,1.031216,1.160631,0.774482,0.758632,0.573268,0.567294,0.000000,0.000000,0.000000,0.000000,NO
1.3.2,lang/java/src/java/org/apache/avro/file/SeekableFileInput.java,0.080917,0.000000,0.000000,0.000000,0.000000,0.000000,0.000000,0.000000,0.000000,0.000000,0.000000,0.953513,1.160631,1.193540,0.758632,0.828404,0.319103,0.000000,0.000000,0.000000,0.000000,NO
1.3.2,lang/java/src/java/org/apache/avro/file/DataFileConstants.java,0.087141,0.000000,0.000000,0.531930,0.000000,0.000000,0.000000,0.000000,0.000000,0.000000,0.000000,0.986438,1.160631,0.823169,0.758632,0.706376,0.354559,0.000000,0.000000,0.000000,0.000000,NO
1.3.2,lang/java/src/java/org/apache/avro/file/SeekableInput.java,0.049795,0.000000,0.000000,0.531930,0.000000,0.000000,0.000000,0.000000,0.000000,0.000000,0.000000,0.960098,1.160631,1.201783,0.758632,0.825258,0.390015,0.000000,0.000000,0.000000,0.000000,NO
1.3.2,lang/java/src/java/org/apache/avro/reflect/ReflectRequestor.java,0.267649,0.000000,0.000000,0.000000,0.000000,0.000000,0.000000,0.000000,0.000000,0.000000,0.000000,1.144479,1.160631,0.661190,0.758632,0.740233,0.372287,0.000000,0.000000,0.000000,0.000000,NO
1.3.2,lang/java/src/java/org/apache/avro/reflect/Union.java,0.074693,0.000000,0.000000,0.531930,0.000000,0.000000,0.000000,0.000000,0.000000,0.000000,0.000000,1.028582,1.160631,0.772504,0.758632,0.719369,0.443198,0.000000,0.000000,0.000000,0.000000,NO
1.3.2,lang/java/src/java/org/apache/avro/reflect/ReflectResponder.java,0.136937,0.000000,0.000000,0.531930,0.000000,0.000000,0.000000,0.000000,0.000000,0.000000,0.000000,1.243254,1.160631,0.583582,0.758632,0.745376,0.319103,0.000000,0.000000,0.000000,0.000000,YES
1.3.2,lang/java/src/java/org/apache/avro/reflect/Stringable.java,0.062244,0.000000,0.000000,1.063860,0.000000,0.000000,0.000000,0.000000,0.000000,0.000000,0.000000,1.021997,1.160631,0.852843,0.758632,0.751900,0.390015,0.000000,0.000000,0.000000,0.000000,NO
1.3.2,lang/java/src/java/org/apache/avro/reflect/Nullable.java,0.062244,0.000000,0.000000,1.063860,0.000000,0.000000,0.000000,0.000000,0.000000,0.000000,0.000000,1.028582,1.160631,0.772504,0.758632,0.704610,0.372287,0.000000,0.000000,0.000000,0.000000,NO
1.3.3,lang/java/src/java/org/apache/avro/SchemaParseException.java,0.031122,0.000000,0.000000,0.000000,0.000000,0.000000,0.000000,0.000000,0.000000,0.000000,0.000000,0.952196,1.160631,1.191892,0.816104,0.904477,0.319103,0.000000,0.000000,0.000000,0.000000,NO
1.3.3,lang/java/src/java/org/apache/avro/generic/GenericArray.java,0.043571,0.000000,0.000000,0.000000,0.000000,0.000000,0.000000,0.000000,0.000000,0.000000,0.000000,1.014095,1.160631,1.088034,0.816104,0.904353,0.425470,0.000000,0.000000,0.000000,0.000000,NO
1.3.3,lang/java/src/java/org/apache/avro/generic/GenericContainer.java,0.031122,0.000000,0.000000,0.000000,0.000000,0.000000,0.000000,0.000000,0.000000,0.000000,0.000000,0.979853,1.160631,1.226511,0.816104,0.885172,0.336831,0.000000,0.000000,0.000000,0.000000,NO
1.3.3,lang/java/src/java/org/apache/avro/generic/GenericRecord.java,0.031122,0.000000,0.000000,0.531930,0.000000,0.000000,0.000000,0.000000,0.000000,0.000000,0.000000,1.008827,1.160631,0.947084,0.816104,0.768642,0.372287,0.000000,0.000000,0.000000,0.000000,NO
1.3.3,lang/java/src/java/org/apache/avro/generic/GenericFixed.java,0.024898,0.000000,0.000000,0.000000,0.000000,0.000000,0.000000,0.000000,0.000000,0.000000,0.000000,0.973268,1.160631,1.218269,0.816104,0.896868,0.336831,0.000000,0.000000,0.000000,0.000000,NO
1.3.3,lang/java/src/java/org/apache/avro/generic/IndexedRecord.java,0.031122,0.000000,0.000000,0.531930,0.000000,0.000000,0.000000,0.000000,0.000000,0.000000,0.000000,1.008827,1.160631,0.947084,0.816104,0.772922,0.354559,0.000000,0.000000,0.000000,0.000000,NO
1.3.3,lang/java/src/java/org/apache/avro/file/SeekableInput.java,0.049795,0.000000,0.000000,0.531930,0.000000,0.000000,0.000000,0.000000,0.000000,0.000000,0.000000,0.960098,1.160631,1.201783,0.816104,0.889551,0.390015,0.000000,0.000000,0.000000,0.000000,NO
1.3.3,lang/java/src/java/org/apache/avro/file/Codec.java,0.099590,0.000000,0.000000,0.000000,0.000000,0.000000,0.000000,0.000000,0.000000,0.000000,0.000000,1.031216,1.160631,0.774482,0.816104,0.637561,0.567294,0.000000,0.000000,0.000000,0.000000,NO
1.3.3,lang/java/src/java/org/apache/avro/file/LengthLimitedInputStream.java,0.329893,0.000000,0.000000,0.000000,0.000000,0.000000,0.000000,0.000000,0.000000,0.000000,0.000000,0.021072,0.042788,0.158260,0.264372,0.295749,0.390015,0.657895,0.204803,0.000000,0.000000,NO
1.3.3,lang/java/src/java/org/apache/avro/file/DataFileConstants.java,0.087141,0.000000,0.000000,0.531930,0.000000,0.000000,0.000000,0.000000,0.000000,0.000000,0.000000,0.986438,1.160631,0.823169,0.816104,0.770670,0.354559,0.000000,0.000000,0.000000,0.000000,NO
1.3.3,lang/java/src/java/org/apache/avro/file/SeekableFileInput.java,0.080917,0.000000,0.000000,0.000000,0.000000,0.000000,0.000000,0.000000,0.000000,0.000000,0.000000,0.953513,1.160631,1.193540,0.816104,0.892697,0.319103,0.000000,0.000000,0.000000,0.000000,NO
1.3.3,lang/java/src/java/org/apache/avro/io/DirectBinaryDecoder.java,0.958556,0.000000,0.000000,0.000000,0.000000,0.000000,0.000000,0.000000,0.000000,0.000000,0.000000,0.757279,1.160631,0.710931,0.672424,0.535421,0.478654,0.986843,0.614410,0.000000,0.000000,NO
1.3.3,lang/java/src/java/org/apache/avro/io/DatumWriter.java,0.043571,0.000000,0.000000,0.000000,0.000000,0.000000,0.000000,0.000000,0.000000,0.000000,0.000000,1.011461,1.160631,1.085208,0.816104,0.902617,0.407743,0.000000,0.000000,0.000000,0.000000,NO
1.3.3,lang/java/src/java/org/apache/avro/io/ResolvingDecoder.java,0.784273,0.155563,0.487176,0.531930,1.265598,0.216727,0.321143,0.556389,0.197646,0.337051,0.559380,0.849469,1.160631,0.425322,0.668593,0.564917,1.879161,1.973686,0.860174,0.000000,0.000000,NO
1.3.3,lang/java/src/java/org/apache/avro/io/ValidatingDecoder.java,1.126614,0.000000,0.000000,0.531930,0.000000,0.000000,0.000000,0.000000,0.000000,0.000000,0.000000,0.778351,1.160631,0.649523,0.668593,0.714953,0.372287,0.657895,0.409606,0.000000,0.000000,NO
1.3.3,lang/java/src/java/org/apache/avro/io/Encoder.java,0.224078,0.000000,0.000000,0.000000,0.000000,0.000000,0.000000,0.000000,0.000000,0.000000,0.000000,1.028582,1.160631,0.858338,0.816104,0.813829,3.705139,0.000000,0.000000,0.000000,0.000000,NO
1.3.3,lang/java/src/java/org/apache/avro/io/DatumReader.java,0.043571,0.000000,0.000000,0.000000,0.000000,0.000000,0.000000,0.000000,0.000000,0.000000,0.000000,0.925856,1.160631,1.158921,0.816104,0.905185,0.425470,0.000000,0.000000,0.000000,0.000000,NO
1.3.3,lang/java/src/java/org/apache/avro/io/ParsingDecoder.java,0.292546,0.000000,0.000000,0.000000,0.000000,0.000000,0.000000,0.000000,0.000000,0.000000,0.000000,0.687477,1.160631,1.721072,0.616868,0.689908,0.336831,3.947372,0.532488,0.000000,0.000000,NO
1.3.3,lang/java/src/java/org/apache/avro/io/JsonEncoder.java,1.207531,0.000000,0.000000,1.595789,0.000000,0.000000,0.000000,0.000000,0.000000,0.000000,0.000000,0.775717,1.160631,0.582593,0.616868,0.647300,0.372287,0.986843,0.573449,0.000000,0.000000,NO
1.3.3,lang/java/src/java/org/apache/avro/io/ValidatingEncoder.java,0.927434,0.000000,0.000000,1.063860,0.000000,0.000000,0.000000,0.000000,0.000000,0.000000,0.000000,0.766498,1.160631,0.719586,0.668593,0.713674,0.443198,0.328948,0.081921,0.000000,0.000000,NO
1.3.3,lang/java/src/java/org/apache/avro/io/Decoder.java,0.199180,0.000000,0.000000,0.000000,0.000000,0.000000,0.000000,0.000000,0.000000,0.000000,0.000000,1.101017,1.160631,0.689088,0.816104,0.817223,4.006514,0.000000,0.000000,0.000000,0.000000,NO
1.3.3,lang/java/src/java/org/apache/avro/AvroTypeException.java,0.043571,0.000000,0.000000,0.000000,0.000000,0.000000,0.000000,0.000000,0.000000,0.000000,0.000000,0.993023,1.160631,1.065426,0.816104,0.889883,0.319103,0.000000,0.000000,0.000000,0.000000,NO
1.3.3,lang/java/src/java/org/apache/avro/tool/DataFileGetSchemaTool.java,0.186732,0.000000,0.000000,0.000000,0.000000,0.000000,0.000000,0.000000,0.000000,0.000000,0.000000,1.002242,1.160631,0.684293,0.816104,0.607278,0.319103,0.328948,0.040961,0.000000,0.000000,NO
1.3.3,lang/java/src/java/org/apache/avro/tool/Tool.java,0.056019,0.000000,0.000000,0.000000,0.000000,0.000000,0.000000,0.000000,0.000000,0.000000,0.000000,0.996974,1.160631,0.680696,0.816104,0.713791,0.673662,0.000000,0.000000,0.000000,0.000000,NO
1.3.3,lang/java/src/java/org/apache/avro/tool/DataFileReadTool.java,0.304995,0.000000,0.000000,0.000000,0.000000,0.000000,0.000000,0.000000,0.000000,0.000000,0.000000,0.604506,1.160631,1.513357,0.308434,0.344962,0.372287,0.328948,0.081921,0.000000,0.000000,NO
1.3.3,lang/java/src/java/org/apache/avro/reflect/Stringable.java,0.062244,0.000000,0.000000,1.063860,0.000000,0.000000,0.000000,0.000000,0.000000,0.000000,0.000000,1.021997,1.160631,0.852843,0.816104,0.816193,0.390015,0.000000,0.000000,0.000000,0.000000,NO
1.3.3,lang/java/src/java/org/apache/avro/reflect/ReflectRequestor.java,0.267649,0.000000,0.000000,0.000000,0.000000,0.000000,0.000000,0.000000,0.000000,0.000000,0.000000,1.144479,1.160631,0.661190,0.816104,0.804526,0.372287,0.000000,0.000000,0.000000,0.000000,NO
1.3.3,lang/java/src/java/org/apache/avro/reflect/ReflectResponder.java,0.136937,0.000000,0.000000,0.531930,0.000000,0.000000,0.000000,0.000000,0.000000,0.000000,0.000000,1.243254,1.160631,0.583582,0.816104,0.809669,0.319103,0.000000,0.000000,0.000000,0.000000,YES
1.3.3,lang/java/src/java/org/apache/avro/reflect/Nullable.java,0.062244,0.000000,0.000000,1.063860,0.000000,0.000000,0.000000,0.000000,0.000000,0.000000,0.000000,1.028582,1.160631,0.772504,0.816104,0.768904,0.372287,0.000000,0.000000,0.000000,0.000000,NO
1.3.3,lang/java/src/java/org/apache/avro/reflect/Union.java,0.074693,0.000000,0.000000,0.531930,0.000000,0.000000,0.000000,0.000000,0.000000,0.000000,0.000000,1.028582,1.160631,0.772504,0.816104,0.783662,0.443198,0.000000,0.000000,0.000000,0.000000,NO
1.3.3,lang/java/src/java/org/apache/avro/AvroRuntimeException.java,0.049795,0.000000,0.000000,0.000000,0.000000,0.000000,0.000000,0.000000,0.000000,0.000000,0.000000,0.964049,1.160631,1.034339,0.816104,0.885603,0.319103,0.000000,0.000000,0.000000,0.000000,NO
1.3.3,lang/java/src/java/org/apache/avro/ipc/ResponderServlet.java,0.186732,0.000000,0.000000,0.000000,0.000000,0.000000,0.000000,0.000000,0.000000,0.000000,0.000000,0.584751,1.160631,1.463900,0.482766,0.532990,0.319103,0.328948,0.040961,0.000000,0.000000,NO
1.3.3,lang/java/src/java/org/apache/avro/ipc/HttpServer.java,0.186732,0.000000,0.000000,0.000000,0.000000,0.000000,0.000000,0.000000,0.000000,0.000000,0.000000,0.584751,1.160631,1.463900,0.482766,0.533981,0.354559,0.328948,0.081921,0.000000,0.000000,NO
1.3.3,lang/java/src/java/org/apache/avro/ipc/Server.java,0.031122,0.000000,0.000000,0.000000,0.000000,0.000000,0.000000,0.000000,0.000000,0.000000,0.000000,1.000925,1.160631,1.073904,0.816104,0.860743,0.354559,0.000000,0.000000,0.000000,0.000000,NO
1.3.3,lang/java/src/java/org/apache/avro/ipc/stats/FloatHistogram.java,0.168058,0.000000,0.000000,0.531930,0.000000,0.000000,0.000000,0.000000,0.000000,0.000000,0.000000,0.633480,1.160631,0.951535,0.565143,0.484945,0.390015,0.328948,0.081921,0.000000,0.000000,NO
1.3.3,lang/java/src/java/org/apache/avro/ipc/stats/StatsServlet.java,0.423258,0.000000,0.000000,0.000000,0.000000,0.000000,0.000000,0.000000,0.000000,0.000000,0.000000,0.587385,1.160631,2.205742,0.291192,0.325752,0.443198,0.328948,0.122882,0.000000,0.000000,NO
1.3.3,lang/java/src/java/org/apache/avro/ipc/LocalTransceiver.java,0.168058,0.000000,0.000000,0.000000,0.000000,0.000000,0.000000,0.000000,0.000000,0.000000,0.000000,0.989072,1.160631,0.928538,0.816104,0.769801,0.319103,0.000000,0.000000,0.000000,0.000000,NO
1.3.3,lang/java/src/java/org/apache/avro/specific/SchemaTask.java,0.049795,0.000000,0.000000,0.000000,0.000000,0.000000,0.000000,0.000000,0.000000,0.000000,0.000000,0.987755,1.160631,1.059774,0.816104,0.894555,0.319103,0.000000,0.000000,0.000000,0.000000,NO
1.3.3,lang/java/src/java/org/apache/avro/specific/FixedSize.java,0.074693,0.000000,0.000000,0.531930,0.000000,0.000000,0.000000,0.000000,0.000000,0.000000,0.000000,1.010144,1.160631,0.948321,0.816104,0.863305,0.390015,0.000000,0.000000,0.000000,0.000000,NO
1.3.3,lang/java/src/java/org/apache/avro/specific/SpecificFixed.java,0.043571,0.000000,0.000000,0.000000,0.000000,0.000000,0.000000,0.000000,0.000000,0.000000,0.000000,1.002242,1.160631,0.940902,0.816104,0.894994,0.319103,0.000000,0.000000,0.000000,0.000000,NO
1.3.3,lang/java/src/java/org/apache/avro/specific/SpecificRecord.java,0.024898,0.000000,0.000000,0.531930,0.000000,0.000000,0.000000,0.000000,0.000000,0.000000,0.000000,1.032533,1.160631,0.969340,0.816104,0.856212,0.336831,0.000000,0.000000,0.000000,0.000000,NO
1.4.0,lang/java/src/java/org/apache/avro/SchemaParseException.java,0.031122,0.000000,0.000000,0.000000,0.000000,0.000000,0.000000,0.000000,0.000000,0.000000,0.000000,0.952196,1.160631,1.191892,0.990436,1.099500,0.319103,0.000000,0.000000,0.000000,0.000000,NO
1.4.0,lang/java/src/java/org/apache/avro/AvroRuntimeException.java,0.049795,0.000000,0.000000,0.000000,0.000000,0.000000,0.000000,0.000000,0.000000,0.000000,0.000000,0.964049,1.160631,1.034339,0.990436,1.080626,0.319103,0.000000,0.000000,0.000000,0.000000,NO
1.4.0,lang/java/src/java/org/apache/avro/ipc/stats/StatsServlet.java,1.188858,6.050568,1.461528,0.000000,2.531197,5.121599,3.481868,4.382780,5.065971,2.909280,4.779268,0.629529,1.160631,0.945601,0.465524,0.153288,0.744573,0.328948,0.286725,0.000000,0.000000,NO
1.4.0,lang/java/src/java/org/apache/avro/ipc/stats/FloatHistogram.java,0.168058,0.000000,0.000000,0.531930,0.000000,0.000000,0.000000,0.000000,0.000000,0.000000,0.000000,0.633480,1.160631,0.951535,0.739475,0.679967,0.390015,0.328948,0.081921,0.000000,0.000000,NO
1.4.0,lang/java/src/java/org/apache/avro/ipc/stats/StatsServer.java,0.124488,0.442125,0.487176,0.000000,1.265598,0.615961,0.912723,1.581315,0.561730,0.957934,1.589818,0.023706,0.048137,0.178042,0.080461,0.090010,0.496382,0.000000,0.000000,0.000000,0.000000,NO
1.4.0,lang/java/src/java/org/apache/avro/ipc/stats/StaticServlet.java,0.118263,0.376625,0.974352,0.000000,1.265598,0.524707,0.473264,0.673523,0.478511,0.496706,0.677145,0.056631,0.066857,0.212661,0.080461,0.068207,0.390015,0.328948,0.081921,0.000000,0.000000,NO
1.4.0,lang/java/src/java/org/apache/avro/ipc/stats/IntegerHistogram.java,0.174283,0.139188,0.487176,0.531930,1.265598,0.102660,0.152120,0.263552,0.010402,0.017740,0.029441,0.638748,1.160631,0.799540,0.739475,0.602175,0.390015,0.328948,0.081921,0.000000,0.000000,NO
1.4.0,lang/java/src/java/org/apache/avro/ipc/Server.java,0.043571,0.049125,0.487176,0.000000,1.265598,0.068440,0.101414,0.175702,0.062414,0.106437,0.176646,1.031216,1.160631,0.968103,0.990436,1.002693,0.390015,0.000000,0.000000,0.000000,0.000000,NO
1.4.0,lang/java/src/java/org/apache/avro/ipc/NettyServer.java,0.678458,1.629314,1.461528,0.531930,1.265598,1.996169,2.501536,1.708210,1.591568,2.625448,1.501495,0.046095,0.061508,0.115398,0.132186,0.137450,0.425470,0.328948,0.081921,0.000000,0.000000,NO
1.4.0,lang/java/src/java/org/apache/avro/ipc/trace/Trace.java,0.784273,2.071440,1.461528,0.000000,2.531197,2.828857,4.141056,2.420778,2.569394,4.346180,2.423982,0.092190,0.074879,0.230795,0.065135,0.072086,1.772794,1.644738,0.819213,0.000000,0.000000,NO
1.4.0,lang/java/src/java/org/apache/avro/ipc/trace/TraceClientServlet.java,1.182634,2.267940,0.974352,0.000000,1.265598,3.022770,3.346649,3.880078,2.631808,3.299549,3.724296,0.055314,0.066857,0.207716,0.065135,0.043620,0.726845,0.986843,0.819213,0.000000,0.000000,NO
1.4.0,lang/java/src/java/org/apache/avro/ipc/trace/TracePlugin.java,1.543648,3.291378,2.435880,0.000000,2.531197,4.254692,5.442531,2.184557,3.890499,5.712122,2.202192,0.121165,0.074879,0.181998,0.065135,0.066314,1.170044,0.986843,1.024016,0.000000,0.000000,NO
1.4.0,lang/java/src/java/org/apache/avro/ipc/trace/StaticServlet.java,0.136937,0.409375,0.487176,0.000000,1.265598,0.570334,0.845113,1.464180,0.520120,0.886976,1.472054,0.032925,0.066857,0.247280,0.030652,0.034290,0.390015,0.328948,0.122882,0.000000,0.000000,NO
1.4.0,lang/java/src/java/org/apache/avro/ipc/trace/SpanStorage.java,0.068468,0.409375,0.974352,0.531930,1.265598,0.399234,0.405654,0.512463,0.208048,0.195135,0.294411,1.047020,1.160631,0.786352,0.990436,0.762150,0.691390,0.000000,0.000000,0.000000,0.000000,NO
1.4.0,lang/java/src/java/org/apache/avro/ipc/trace/Util.java,0.865190,2.046877,1.948704,0.000000,1.265598,2.691976,2.856484,1.727733,2.309334,2.997977,1.633980,0.081654,0.066857,0.153314,0.065135,0.061499,1.081404,1.315791,0.983055,0.000000,0.000000,NO
1.4.0,lang/java/src/java/org/apache/avro/ipc/trace/TraceCollection.java,1.232429,2.914753,0.974352,0.000000,1.265598,3.775611,4.749538,4.846437,3.183136,4.984803,4.504485,0.044778,0.066857,0.168151,0.030652,0.032484,1.365051,0.986843,0.573449,0.000000,0.000000,NO
1.4.0,lang/java/src/java/org/apache/avro/ipc/trace/SpanAggregator.java,0.666010,1.514689,1.461528,0.531930,2.531197,2.087422,2.619852,1.786300,1.882835,2.749624,1.776278,0.064533,0.066857,0.161557,0.065135,0.066471,0.975036,1.973686,0.614410,0.000000,0.000000,NO
1.4.0,lang/java/src/java/org/apache/avro/ipc/trace/TraceNode.java,0.404585,1.252689,0.974352,0.000000,1.265598,1.665375,1.588813,2.137703,1.445934,1.667514,2.046155,0.055314,0.066857,0.207716,0.065135,0.057990,1.028220,0.657895,0.081921,0.000000,0.000000,NO
1.4.0,lang/java/src/java/org/apache/avro/ipc/trace/FileSpanStorage.java,1.319570,2.939315,0.487176,0.000000,1.265598,4.094998,6.067915,10.512815,3.734463,6.368484,10.569346,0.014487,0.029417,0.108803,0.049809,0.055721,1.861433,0.986843,0.942095,0.000000,0.000000,NO
1.4.0,lang/java/src/java/org/apache/avro/ipc/trace/TracePluginConfiguration.java,0.174283,0.507625,1.461528,0.000000,1.265598,0.684401,0.760602,0.585672,0.603339,0.798278,0.569194,0.069801,0.066857,0.174745,0.065135,0.065745,0.638206,0.000000,0.000000,0.000000,0.000000,NO
1.4.0,lang/java/src/java/org/apache/avro/ipc/trace/InMemorySpanStorage.java,0.280097,0.655001,0.974352,0.000000,1.265598,0.901128,1.149354,1.156703,0.811388,1.206287,1.148202,0.036876,0.045462,0.138477,0.065135,0.070294,0.425470,0.657895,0.163843,0.000000,0.000000,NO
1.4.0,lang/java/src/java/org/apache/avro/ipc/NettyTransceiver.java,1.188858,2.161502,0.487176,0.000000,1.265598,3.011364,4.462199,7.730873,2.746235,4.683231,7.772444,0.011853,0.024068,0.089021,0.132186,0.147874,0.638206,0.328948,0.286725,0.000000,0.000000,NO
1.4.0,lang/java/src/java/org/apache/avro/ipc/LocalTransceiver.java,0.168058,0.000000,0.000000,0.000000,0.000000,0.000000,0.000000,0.000000,0.000000,0.000000,0.000000,0.989072,1.160631,0.928538,0.990436,0.964823,0.319103,0.000000,0.000000,0.000000,0.000000,NO
1.4.0,lang/java/src/java/org/apache/avro/ipc/NettyTransportCodec.java,0.690907,1.498314,0.974352,0.000000,1.265598,2.087422,2.788875,2.679450,1.903640,2.927019,2.693858,0.019755,0.024068,0.074184,0.132186,0.136070,0.815485,0.657895,0.286725,0.000000,0.000000,NO
1.4.0,lang/java/src/java/org/apache/avro/ipc/ResponderServlet.java,0.186732,0.000000,0.000000,0.000000,0.000000,0.000000,0.000000,0.000000,0.000000,0.000000,0.000000,0.584751,1.160631,1.463900,0.657098,0.728013,0.319103,0.328948,0.040961,0.000000,0.000000,NO
1.4.0,lang/java/src/java/org/apache/avro/ipc/HttpServer.java,0.230302,0.237438,0.487176,0.000000,1.265598,0.239540,0.354948,0.614956,0.135231,0.230614,0.382734,0.615042,1.160631,1.154800,0.657098,0.600636,0.425470,0.328948,0.081921,0.000000,0.000000,NO
1.4.0,lang/java/src/java/org/apache/avro/specific/FixedSize.java,0.074693,0.000000,0.000000,0.531930,0.000000,0.000000,0.000000,0.000000,0.000000,0.000000,0.000000,1.010144,1.160631,0.948321,0.990436,1.058328,0.390015,0.000000,0.000000,0.000000,0.000000,NO
1.4.0,lang/java/src/java/org/apache/avro/specific/SchemaTask.java,0.049795,0.000000,0.000000,0.000000,0.000000,0.000000,0.000000,0.000000,0.000000,0.000000,0.000000,0.987755,1.160631,1.059774,0.990436,1.089577,0.319103,0.000000,0.000000,0.000000,0.000000,NO
1.4.0,lang/java/src/java/org/apache/avro/specific/SpecificRecord.java,0.024898,0.000000,0.000000,0.531930,0.000000,0.000000,0.000000,0.000000,0.000000,0.000000,0.000000,1.032533,1.160631,0.969340,0.990436,1.051234,0.336831,0.000000,0.000000,0.000000,0.000000,NO
1.4.0,lang/java/src/java/org/apache/avro/specific/SpecificFixed.java,0.043571,0.000000,0.000000,0.000000,0.000000,0.000000,0.000000,0.000000,0.000000,0.000000,0.000000,1.002242,1.160631,0.940902,0.990436,1.090016,0.319103,0.000000,0.000000,0.000000,0.000000,NO
1.4.0,lang/java/src/java/org/apache/avro/mapred/HadoopReducer.java,0.192956,0.491250,0.487176,0.000000,1.265598,0.684401,1.014136,1.757017,0.624144,1.064371,1.766465,0.048729,0.098948,0.365975,0.093871,0.105012,0.336831,0.000000,0.000000,0.000000,0.000000,NO
1.4.0,lang/java/src/java/org/apache/avro/mapred/tether/TetherReducer.java,0.329893,0.671376,0.487176,0.000000,1.265598,0.935348,1.385986,2.401256,0.852997,1.454640,2.414168,0.048729,0.098948,0.365975,0.162838,0.182164,0.354559,0.328948,0.245764,0.000000,0.000000,NO
1.4.0,lang/java/src/java/org/apache/avro/mapred/tether/TetherPartitioner.java,0.186732,0.483063,0.974352,0.000000,1.265598,0.672994,0.997234,0.863866,0.613742,1.046631,0.868512,0.050046,0.098948,0.187933,0.162838,0.182164,0.319103,0.328948,0.081921,0.000000,0.000000,NO
1.4.0,lang/java/src/java/org/apache/avro/mapred/tether/TetherKeyComparator.java,0.205405,0.810563,0.974352,0.000000,1.265598,0.912534,1.031038,1.171344,0.634547,1.082110,0.897953,0.072435,0.098948,0.272009,0.306518,0.281201,0.319103,0.328948,0.122882,0.000000,0.000000,NO
1.4.0,lang/java/src/java/org/apache/avro/mapred/tether/TetherRecordReader.java,0.311219,1.015251,0.974352,0.000000,1.265598,1.186295,1.453595,1.522748,0.915412,1.525598,1.295407,0.072435,0.098948,0.272009,0.306518,0.293640,0.319103,0.328948,0.081921,0.000000,0.000000,NO
1.4.0,lang/java/src/java/org/apache/avro/mapred/tether/TetherJob.java,0.647336,1.310001,0.974352,0.000000,1.265598,1.802255,2.602950,2.313405,1.622775,2.731885,2.296404,0.097458,0.098948,0.365975,0.162838,0.179271,0.496382,0.328948,0.204803,0.000000,0.000000,YES
1.4.0,lang/java/src/java/org/apache/avro/mapred/tether/TetherOutputFormat.java,0.298771,1.064376,0.974352,0.000000,1.265598,1.197701,1.470497,1.537389,0.977826,1.543337,1.383731,0.072435,0.098948,0.272009,0.306518,0.289731,0.336831,0.328948,0.040961,0.000000,0.000000,NO
1.4.0,lang/java/src/java/org/apache/avro/mapred/tether/TetherInputFormat.java,0.192956,0.573126,0.974352,0.000000,1.265598,0.730028,0.946527,0.937075,0.603339,0.993413,0.853791,0.072435,0.098948,0.272009,0.306518,0.310750,0.319103,0.657895,0.081921,0.000000,0.000000,NO
1.4.0,lang/java/src/java/org/apache/avro/mapred/tether/TetherMapRunner.java,0.342341,0.761438,0.487176,0.000000,1.265598,1.060821,1.571911,2.723376,0.967424,1.649775,2.738020,0.048729,0.098948,0.365975,0.162838,0.182164,0.407743,0.657895,0.204803,0.000000,0.000000,NO
1.4.0,lang/java/src/java/org/apache/avro/mapred/tether/TetherOutputService.java,0.410810,0.908813,0.974352,0.000000,1.265598,1.209108,1.740934,1.552031,1.092252,1.827170,1.545656,0.085605,0.098948,0.321465,0.162838,0.173514,0.301375,0.328948,0.122882,0.000000,0.000000,NO
1.4.0,lang/java/src/java/org/apache/avro/mapred/tether/TetheredProcess.java,0.553971,1.080751,0.974352,0.000000,1.265598,1.505682,2.214197,1.932718,1.373117,2.323876,1.943111,0.079020,0.098948,0.296737,0.162838,0.181612,0.460926,0.657895,0.286725,0.000000,0.000000,NO
1.4.0,lang/java/src/java/org/apache/avro/mapred/tether/TetherKeySerialization.java,0.329893,0.745063,0.487176,0.000000,1.265598,1.038008,1.538107,2.664808,0.946619,1.614295,2.679138,0.048729,0.098948,0.365975,0.162838,0.182164,0.319103,0.328948,0.040961,0.000000,0.000000,NO
1.4.0,lang/java/src/java/org/apache/avro/mapred/tether/TetherData.java,0.074693,0.360250,0.487176,0.000000,1.265598,0.193914,0.287339,0.497821,0.104024,0.177395,0.294411,1.037801,1.160631,0.866031,0.990436,0.800838,0.407743,0.000000,0.000000,0.000000,0.000000,NO
1.4.0,lang/java/src/java/org/apache/avro/mapred/AvroWrapper.java,0.155610,0.450313,0.974352,1.063860,1.265598,0.330794,0.456361,0.424612,0.031207,0.053219,0.044162,0.721720,1.160631,0.677549,0.739475,0.583603,0.372287,0.657895,0.286725,0.000000,0.000000,NO
1.4.0,lang/java/src/java/org/apache/avro/mapred/AvroJob.java,0.535297,2.317065,1.948704,0.000000,1.265598,2.463843,1.757836,1.581315,1.633178,1.844909,1.155562,0.127750,0.098948,0.239862,0.306518,0.199718,0.709117,0.328948,0.163843,0.000000,0.000000,YES
1.4.0,lang/java/src/java/org/apache/avro/mapred/AvroValue.java,0.024898,0.098250,0.487176,0.000000,1.265598,0.057033,0.084511,0.146418,0.020805,0.035479,0.058882,1.028582,1.160631,1.103578,0.990436,0.968745,0.336831,0.000000,0.000000,0.000000,0.000000,NO
1.4.0,lang/java/src/java/org/apache/avro/mapred/AvroUtf8InputFormat.java,0.466829,0.957938,0.974352,0.000000,1.265598,1.334582,1.656422,1.713091,1.217081,1.738472,1.722303,0.011853,0.016046,0.044510,0.162838,0.157106,0.372287,0.328948,0.040961,0.000000,0.000000,NO
1.4.0,lang/java/src/java/org/apache/avro/mapred/AvroSerialization.java,0.529073,1.678439,1.461528,0.000000,1.265598,1.939136,2.501536,1.659404,1.674787,2.625448,1.580004,0.121165,0.098948,0.303331,0.306518,0.282022,0.460926,0.657895,0.245764,0.000000,0.000000,YES
1.4.0,lang/java/src/java/org/apache/avro/mapred/AvroInputFormat.java,0.186732,0.458500,0.487176,0.000000,1.265598,0.638774,0.946527,1.639882,0.582535,0.993413,1.648700,0.023706,0.048137,0.178042,0.306518,0.342897,0.319103,0.657895,0.081921,0.000000,0.000000,NO
1.4.0,lang/java/src/java/org/apache/avro/mapred/AvroMapper.java,0.068468,0.908813,0.974352,0.000000,1.265598,0.866908,1.115550,1.112777,0.946619,1.170808,1.339569,0.072435,0.098948,0.272009,0.306518,0.246457,0.407743,0.000000,0.000000,0.000000,0.000000,NO
1.4.0,lang/java/src/java/org/apache/avro/mapred/AvroRecordReader.java,0.292546,0.786001,0.974352,0.000000,1.265598,1.015195,1.453595,1.303121,0.936216,1.525598,1.324848,0.072435,0.098948,0.272009,0.306518,0.318117,0.336831,0.328948,0.081921,0.000000,0.000000,YES
1.4.0,lang/java/src/java/org/apache/avro/mapred/AvroReducer.java,0.112039,1.039814,0.974352,0.000000,1.265598,1.015195,1.216963,1.303121,0.967424,1.277245,1.369010,0.072435,0.098948,0.272009,0.306518,0.239876,0.443198,0.328948,0.081921,0.000000,0.000000,NO
1.4.0,lang/java/src/java/org/apache/avro/mapred/Pair.java,2.315472,3.979129,0.974352,0.000000,1.265598,5.349733,7.656728,6.867006,4.722692,8.035998,6.683124,0.085605,0.098948,0.321465,0.093871,0.102102,0.975036,0.657895,0.409606,0.000000,0.000000,YES
1.4.0,lang/java/src/java/org/apache/avro/mapred/FsInput.java,0.186732,0.491250,0.487176,0.000000,1.265598,0.684401,1.014136,1.757017,0.624144,1.064371,1.766465,0.023706,0.048137,0.178042,0.306518,0.342897,0.336831,0.000000,0.000000,0.000000,0.000000,NO
1.4.0,lang/java/src/java/org/apache/avro/mapred/AvroKeyComparator.java,0.143161,0.671376,1.461528,0.000000,1.265598,0.752841,1.031038,0.644239,0.748973,1.082110,0.706586,0.121165,0.098948,0.303331,0.306518,0.284798,0.319103,0.328948,0.040961,0.000000,0.000000,YES
1.4.0,lang/java/src/java/org/apache/avro/mapred/HadoopCombiner.java,0.199180,0.507625,0.487176,0.000000,1.265598,0.707214,1.047941,1.815584,0.644949,1.099850,1.825347,0.048729,0.098948,0.365975,0.093871,0.105012,0.372287,0.000000,0.000000,0.000000,0.000000,NO
1.4.0,lang/java/src/java/org/apache/avro/mapred/HadoopMapper.java,0.323668,0.679563,0.487176,0.000000,1.265598,0.946754,1.402888,2.430540,0.863400,1.472379,2.443609,0.048729,0.098948,0.365975,0.093871,0.105012,0.372287,0.328948,0.081921,0.000000,0.000000,NO
1.4.0,lang/java/src/java/org/apache/avro/mapred/AvroKey.java,0.024898,0.098250,0.487176,0.000000,1.265598,0.057033,0.084511,0.146418,0.020805,0.035479,0.058882,1.028582,1.160631,1.103578,0.990436,0.968745,0.336831,0.000000,0.000000,0.000000,0.000000,NO
1.4.0,lang/java/src/java/org/apache/avro/mapred/HadoopReducerBase.java,0.224078,0.515813,0.487176,0.000000,1.265598,0.718621,1.064843,1.844867,0.655351,1.117589,1.854788,0.048729,0.098948,0.365975,0.093871,0.105012,0.301375,0.328948,0.040961,0.000000,0.000000,NO
1.4.0,lang/java/src/java/org/apache/avro/mapred/AvroCollector.java,0.037346,0.122813,0.487176,0.000000,1.265598,0.091253,0.135218,0.234269,0.010402,0.017740,0.029441,1.028582,1.160631,1.103578,0.990436,0.944752,0.319103,0.000000,0.000000,0.000000,0.000000,NO
1.4.0,lang/java/src/java/org/apache/avro/mapred/AvroOutputFormat.java,0.379688,1.039814,1.948704,0.000000,1.265598,1.300362,1.470497,0.834583,1.113057,1.543337,0.787549,0.127750,0.098948,0.239862,0.306518,0.270436,0.407743,0.657895,0.204803,0.000000,0.000000,YES
1.4.0,lang/java/src/java/org/apache/avro/io/ValidatingDecoder.java,1.151512,0.049125,0.487176,0.531930,1.265598,0.068440,0.101414,0.175702,0.062414,0.106437,0.176646,0.784936,1.160631,0.589517,0.842925,0.902221,0.390015,0.657895,0.409606,0.000000,0.000000,NO
1.4.0,lang/java/src/java/org/apache/avro/io/ValidatingEncoder.java,0.927434,0.000000,0.000000,1.063860,0.000000,0.000000,0.000000,0.000000,0.000000,0.000000,0.000000,0.766498,1.160631,0.719586,0.842925,0.908697,0.443198,0.328948,0.081921,0.000000,0.000000,NO
1.4.0,lang/java/src/java/org/apache/avro/io/DirectBinaryDecoder.java,0.958556,0.000000,0.000000,0.000000,0.000000,0.000000,0.000000,0.000000,0.000000,0.000000,0.000000,0.757279,1.160631,0.710931,0.846756,0.730444,0.478654,0.986843,0.614410,0.000000,0.000000,NO
1.4.0,lang/java/src/java/org/apache/avro/io/Encoder.java,0.224078,0.000000,0.000000,0.000000,0.000000,0.000000,0.000000,0.000000,0.000000,0.000000,0.000000,1.028582,1.160631,0.858338,0.990436,1.008851,3.705139,0.000000,0.000000,0.000000,0.000000,NO
1.4.0,lang/java/src/java/org/apache/avro/io/Decoder.java,0.199180,0.000000,0.000000,0.000000,0.000000,0.000000,0.000000,0.000000,0.000000,0.000000,0.000000,1.101017,1.160631,0.689088,0.990436,1.012245,4.006514,0.000000,0.000000,0.000000,0.000000,NO
1.4.0,lang/java/src/java/org/apache/avro/io/DatumWriter.java,0.043571,0.000000,0.000000,0.000000,0.000000,0.000000,0.000000,0.000000,0.000000,0.000000,0.000000,1.011461,1.160631,1.085208,0.990436,1.097639,0.407743,0.000000,0.000000,0.000000,0.000000,NO
1.4.0,lang/java/src/java/org/apache/avro/io/ResolvingDecoder.java,0.784273,0.155563,0.487176,1.063860,1.265598,0.216727,0.321143,0.556389,0.197646,0.337051,0.559380,0.849469,1.160631,0.425322,0.842925,0.763078,1.879161,1.973686,0.860174,0.000000,0.000000,NO
1.4.0,lang/java/src/java/org/apache/avro/io/JsonEncoder.java,1.207531,0.000000,0.000000,1.595789,0.000000,0.000000,0.000000,0.000000,0.000000,0.000000,0.000000,0.775717,1.160631,0.582593,0.791200,0.842323,0.372287,0.986843,0.573449,0.000000,0.000000,NO
1.4.0,lang/java/src/java/org/apache/avro/io/DatumReader.java,0.043571,0.016375,0.487176,0.000000,1.265598,0.011407,0.016902,0.029284,0.000000,0.000000,0.000000,0.931124,1.160631,0.999013,0.990436,1.083969,0.425470,0.000000,0.000000,0.000000,0.000000,NO
1.4.0,lang/java/src/java/org/apache/avro/io/ParsingDecoder.java,0.292546,0.000000,0.000000,0.000000,0.000000,0.000000,0.000000,0.000000,0.000000,0.000000,0.000000,0.687477,1.160631,1.721072,0.791200,0.884931,0.336831,3.947372,0.532488,0.000000,0.000000,NO
1.4.0,lang/java/src/java/org/apache/avro/generic/GenericArray.java,0.037346,0.147375,0.974352,0.000000,1.265598,0.079847,0.067609,0.102493,0.104024,0.124177,0.147205,1.035167,1.160631,0.863833,0.990436,0.958468,0.390015,0.000000,0.000000,0.000000,0.000000,NO
1.4.0,lang/java/src/java/org/apache/avro/generic/GenericEnumSymbol.java,0.024898,0.065500,0.487176,0.000000,1.265598,0.045627,0.067609,0.117134,0.000000,0.000000,0.000000,1.010144,1.160631,1.083795,0.990436,1.014174,0.336831,0.000000,0.000000,0.000000,0.000000,NO
1.4.0,lang/java/src/java/org/apache/avro/generic/IndexedRecord.java,0.031122,0.065500,0.487176,0.531930,1.265598,0.068440,0.101414,0.175702,0.041610,0.070958,0.117764,1.057556,1.160631,0.882517,0.990436,0.912272,0.425470,0.000000,0.000000,0.000000,0.000000,NO
1.4.0,lang/java/src/java/org/apache/avro/generic/GenericFixed.java,0.024898,0.000000,0.000000,0.000000,0.000000,0.000000,0.000000,0.000000,0.000000,0.000000,0.000000,0.973268,1.160631,1.218269,0.990436,1.091890,0.336831,0.000000,0.000000,0.000000,0.000000,NO
1.4.0,lang/java/src/java/org/apache/avro/generic/GenericContainer.java,0.031122,0.000000,0.000000,0.000000,0.000000,0.000000,0.000000,0.000000,0.000000,0.000000,0.000000,0.979853,1.160631,1.226511,0.990436,1.080194,0.336831,0.000000,0.000000,0.000000,0.000000,NO
1.4.0,lang/java/src/java/org/apache/avro/generic/GenericRecord.java,0.031122,0.000000,0.000000,0.531930,0.000000,0.000000,0.000000,0.000000,0.000000,0.000000,0.000000,1.008827,1.160631,0.947084,0.990436,0.963665,0.372287,0.000000,0.000000,0.000000,0.000000,NO
1.4.0,lang/java/src/java/org/apache/avro/AvroTypeException.java,0.043571,0.000000,0.000000,0.000000,0.000000,0.000000,0.000000,0.000000,0.000000,0.000000,0.000000,0.993023,1.160631,1.065426,0.990436,1.084906,0.319103,0.000000,0.000000,0.000000,0.000000,NO
1.4.0,lang/java/src/java/org/apache/avro/tool/DataFileReadTool.java,0.304995,0.000000,0.000000,0.000000,0.000000,0.000000,0.000000,0.000000,0.000000,0.000000,0.000000,0.604506,1.160631,1.513357,0.482766,0.539984,0.372287,0.328948,0.081921,0.000000,0.000000,NO
1.4.0,lang/java/src/java/org/apache/avro/tool/Tool.java,0.056019,0.000000,0.000000,0.000000,0.000000,0.000000,0.000000,0.000000,0.000000,0.000000,0.000000,0.996974,1.160631,0.680696,0.990436,0.908814,0.673662,0.000000,0.000000,0.000000,0.000000,NO
1.4.0,lang/java/src/java/org/apache/avro/tool/ToTextTool.java,0.348566,0.720501,0.487176,0.000000,1.265598,1.003788,1.487400,2.576958,0.915412,1.561077,2.590815,0.007902,0.016046,0.059347,0.157091,0.175735,0.319103,0.328948,0.122882,0.000000,0.000000,NO
1.4.0,lang/java/src/java/org/apache/avro/tool/DataFileGetSchemaTool.java,0.186732,0.000000,0.000000,0.000000,0.000000,0.000000,0.000000,0.000000,0.000000,0.000000,0.000000,1.002242,1.160631,0.684293,0.990436,0.802301,0.319103,0.328948,0.040961,0.000000,0.000000,NO
1.4.0,lang/java/src/java/org/apache/avro/tool/IdlTool.java,0.292546,0.204688,0.974352,0.000000,1.265598,0.148287,0.118316,0.190343,0.010402,0.017740,0.014721,0.650601,1.160631,0.977252,0.480850,0.437459,0.372287,0.328948,0.122882,0.000000,0.000000,NO
1.4.0,lang/java/src/java/org/apache/avro/tool/FromTextTool.java,0.385912,0.712313,0.487176,0.000000,1.265598,0.501894,0.743700,1.288479,0.010402,0.017740,0.029441,0.633480,1.160631,0.951535,0.482766,0.374300,0.390015,0.328948,0.122882,0.000000,0.000000,NO
1.4.0,lang/java/src/java/org/apache/avro/util/WeakIdentityHashMap.java,0.740702,1.383689,0.487176,0.000000,1.265598,1.927729,2.856484,4.948930,1.758006,2.997977,4.975542,0.006585,0.013371,0.049456,0.055556,0.062150,0.585022,0.328948,0.204803,0.000000,0.000000,NO
1.4.0,lang/java/src/java/org/apache/avro/file/LengthLimitedInputStream.java,0.329893,0.000000,0.000000,0.000000,0.000000,0.000000,0.000000,0.000000,0.000000,0.000000,0.000000,0.021072,0.042788,0.158260,0.438704,0.490771,0.390015,0.657895,0.204803,0.000000,0.000000,NO
1.4.0,lang/java/src/java/org/apache/avro/file/Codec.java,0.099590,0.000000,0.000000,0.000000,0.000000,0.000000,0.000000,0.000000,0.000000,0.000000,0.000000,1.031216,1.160631,0.774482,0.990436,0.832584,0.567294,0.000000,0.000000,0.000000,0.000000,NO
1.4.0,lang/java/src/java/org/apache/avro/file/SeekableFileInput.java,0.080917,0.000000,0.000000,0.000000,0.000000,0.000000,0.000000,0.000000,0.000000,0.000000,0.000000,0.953513,1.160631,1.193540,0.990436,1.087720,0.319103,0.000000,0.000000,0.000000,0.000000,NO
1.4.0,lang/java/src/java/org/apache/avro/file/DataFileConstants.java,0.087141,0.000000,0.000000,0.531930,0.000000,0.000000,0.000000,0.000000,0.000000,0.000000,0.000000,0.986438,1.160631,0.823169,0.990436,0.965692,0.354559,0.000000,0.000000,0.000000,0.000000,NO
1.4.0,lang/java/src/java/org/apache/avro/file/SeekableInput.java,0.049795,0.000000,0.000000,0.531930,0.000000,0.000000,0.000000,0.000000,0.000000,0.000000,0.000000,0.960098,1.160631,1.201783,0.990436,1.084573,0.390015,0.000000,0.000000,0.000000,0.000000,NO
1.4.0,lang/java/src/java/org/apache/avro/reflect/ReflectRequestor.java,0.267649,0.000000,0.000000,0.000000,0.000000,0.000000,0.000000,0.000000,0.000000,0.000000,0.000000,1.144479,1.160631,0.661190,0.990436,0.999549,0.372287,0.000000,0.000000,0.000000,0.000000,NO
1.4.0,lang/java/src/java/org/apache/avro/reflect/Union.java,0.074693,0.000000,0.000000,0.531930,0.000000,0.000000,0.000000,0.000000,0.000000,0.000000,0.000000,1.028582,1.160631,0.772504,0.990436,0.978685,0.443198,0.000000,0.000000,0.000000,0.000000,NO
1.4.0,lang/java/src/java/org/apache/avro/reflect/ReflectResponder.java,0.192956,0.147375,0.974352,1.063860,1.265598,0.171100,0.236632,0.219627,0.145634,0.230614,0.206088,1.289349,1.160631,0.537972,0.990436,0.973934,0.336831,0.328948,0.040961,0.000000,0.000000,NO
1.4.0,lang/java/src/java/org/apache/avro/reflect/Stringable.java,0.062244,0.000000,0.000000,1.063860,0.000000,0.000000,0.000000,0.000000,0.000000,0.000000,0.000000,1.021997,1.160631,0.852843,0.990436,1.011216,0.390015,0.000000,0.000000,0.000000,0.000000,NO
1.4.0,lang/java/src/java/org/apache/avro/reflect/Nullable.java,0.062244,0.000000,0.000000,1.063860,0.000000,0.000000,0.000000,0.000000,0.000000,0.000000,0.000000,1.028582,1.160631,0.772504,0.990436,0.963926,0.372287,0.000000,0.000000,0.000000,0.000000,NO
1.4.1,lang/java/src/java/org/apache/avro/SchemaParseException.java,0.031122,0.000000,0.000000,0.000000,0.000000,0.000000,0.000000,0.000000,0.000000,0.000000,0.000000,0.952196,1.160631,1.191892,1.059403,1.176652,0.319103,0.000000,0.000000,0.000000,0.000000,NO
1.4.1,lang/java/src/java/org/apache/avro/AvroRuntimeException.java,0.049795,0.000000,0.000000,0.000000,0.000000,0.000000,0.000000,0.000000,0.000000,0.000000,0.000000,0.964049,1.160631,1.034339,1.059403,1.157778,0.319103,0.000000,0.000000,0.000000,0.000000,NO
1.4.1,lang/java/src/java/org/apache/avro/ipc/stats/FloatHistogram.java,0.168058,0.000000,0.000000,0.531930,0.000000,0.000000,0.000000,0.000000,0.000000,0.000000,0.000000,0.633480,1.160631,0.951535,0.808441,0.757119,0.390015,0.328948,0.081921,0.000000,0.000000,NO
1.4.1,lang/java/src/java/org/apache/avro/ipc/stats/StaticServlet.java,0.118263,0.000000,0.000000,0.000000,0.000000,0.000000,0.000000,0.000000,0.000000,0.000000,0.000000,0.056631,0.066857,0.212661,0.149428,0.145358,0.390015,0.328948,0.081921,0.000000,0.000000,NO
1.4.1,lang/java/src/java/org/apache/avro/ipc/stats/IntegerHistogram.java,0.174283,0.000000,0.000000,0.531930,0.000000,0.000000,0.000000,0.000000,0.000000,0.000000,0.000000,0.638748,1.160631,0.799540,0.808441,0.679326,0.390015,0.328948,0.081921,0.000000,0.000000,NO
1.4.1,lang/java/src/java/org/apache/avro/ipc/Server.java,0.043571,0.000000,0.000000,0.000000,0.000000,0.000000,0.000000,0.000000,0.000000,0.000000,0.000000,1.031216,1.160631,0.968103,1.059403,1.079845,0.390015,0.000000,0.000000,0.000000,0.000000,NO
1.4.1,lang/java/src/java/org/apache/avro/ipc/SaslSocketServer.java,0.423258,0.835126,0.487176,0.000000,1.265598,1.163481,1.724032,2.986928,1.061045,1.809430,3.002990,0.010536,0.021394,0.079130,0.051725,0.057864,0.390015,0.328948,0.040961,0.000000,0.000000,NO
1.4.1,lang/java/src/java/org/apache/avro/ipc/SaslSocketTransceiver.java,1.935785,3.184941,0.487176,0.000000,1.265598,4.437199,6.574983,11.391324,4.046535,6.900670,11.452579,0.010536,0.021394,0.079130,0.051725,0.057864,0.638206,1.315791,1.556504,0.000000,0.000000,YES
1.4.1,lang/java/src/java/org/apache/avro/ipc/trace/StaticServlet.java,0.136937,0.000000,0.000000,0.000000,0.000000,0.000000,0.000000,0.000000,0.000000,0.000000,0.000000,0.032925,0.066857,0.247280,0.099618,0.111441,0.390015,0.328948,0.122882,0.000000,0.000000,NO
1.4.1,lang/java/src/java/org/apache/avro/ipc/trace/SpanStorage.java,0.068468,0.000000,0.000000,0.531930,0.000000,0.000000,0.000000,0.000000,0.000000,0.000000,0.000000,1.047020,1.160631,0.786352,1.059403,0.839302,0.691390,0.000000,0.000000,0.000000,0.000000,NO
1.4.1,lang/java/src/java/org/apache/avro/ipc/trace/TraceNode.java,0.404585,0.000000,0.000000,0.000000,0.000000,0.000000,0.000000,0.000000,0.000000,0.000000,0.000000,0.055314,0.066857,0.207716,0.134102,0.135142,1.028220,0.657895,0.081921,0.000000,0.000000,NO
1.4.1,lang/java/src/java/org/apache/avro/ipc/trace/TracePluginConfiguration.java,0.174283,0.000000,0.000000,0.000000,0.000000,0.000000,0.000000,0.000000,0.000000,0.000000,0.000000,0.069801,0.066857,0.174745,0.134102,0.142897,0.638206,0.000000,0.000000,0.000000,0.000000,NO
1.4.1,lang/java/src/java/org/apache/avro/ipc/LocalTransceiver.java,0.168058,0.000000,0.000000,0.000000,0.000000,0.000000,0.000000,0.000000,0.000000,0.000000,0.000000,0.989072,1.160631,0.928538,1.059403,1.041975,0.319103,0.000000,0.000000,0.000000,0.000000,NO
1.4.1,lang/java/src/java/org/apache/avro/ipc/ResponderServlet.java,0.186732,0.000000,0.000000,0.000000,0.000000,0.000000,0.000000,0.000000,0.000000,0.000000,0.000000,0.584751,1.160631,1.463900,0.726065,0.805165,0.319103,0.328948,0.040961,0.000000,0.000000,NO
1.4.1,lang/java/src/java/org/apache/avro/ipc/HttpServer.java,0.230302,0.000000,0.000000,0.000000,0.000000,0.000000,0.000000,0.000000,0.000000,0.000000,0.000000,0.615042,1.160631,1.154800,0.726065,0.677788,0.425470,0.328948,0.081921,0.000000,0.000000,YES
1.4.1,lang/java/src/java/org/apache/avro/specific/FixedSize.java,0.074693,0.000000,0.000000,0.531930,0.000000,0.000000,0.000000,0.000000,0.000000,0.000000,0.000000,1.010144,1.160631,0.948321,1.059403,1.135479,0.390015,0.000000,0.000000,0.000000,0.000000,NO
1.4.1,lang/java/src/java/org/apache/avro/specific/SchemaTask.java,0.049795,0.000000,0.000000,0.000000,0.000000,0.000000,0.000000,0.000000,0.000000,0.000000,0.000000,0.987755,1.160631,1.059774,1.059403,1.166729,0.319103,0.000000,0.000000,0.000000,0.000000,NO
1.4.1,lang/java/src/java/org/apache/avro/specific/SpecificRecord.java,0.024898,0.000000,0.000000,0.531930,0.000000,0.000000,0.000000,0.000000,0.000000,0.000000,0.000000,1.032533,1.160631,0.969340,1.059403,1.128386,0.336831,0.000000,0.000000,0.000000,0.000000,NO
1.4.1,lang/java/src/java/org/apache/avro/specific/SpecificFixed.java,0.043571,0.000000,0.000000,0.000000,0.000000,0.000000,0.000000,0.000000,0.000000,0.000000,0.000000,1.002242,1.160631,0.940902,1.059403,1.167168,0.319103,0.000000,0.000000,0.000000,0.000000,NO
1.4.1,lang/java/src/java/org/apache/avro/mapred/SequenceFileReader.java,1.201307,2.022314,0.487176,0.000000,1.265598,2.817450,4.174861,7.233051,2.569394,4.381659,7.271946,0.013170,0.026743,0.098912,0.051725,0.057864,0.390015,0.328948,0.368646,0.000000,0.000000,NO
1.4.1,lang/java/src/java/org/apache/avro/mapred/tether/TetherOutputFormat.java,0.298771,0.000000,0.000000,0.000000,0.000000,0.000000,0.000000,0.000000,0.000000,0.000000,0.000000,0.072435,0.098948,0.272009,0.375485,0.366883,0.336831,0.328948,0.040961,0.000000,0.000000,NO
1.4.1,lang/java/src/java/org/apache/avro/mapred/AvroValue.java,0.024898,0.000000,0.000000,0.000000,0.000000,0.000000,0.000000,0.000000,0.000000,0.000000,0.000000,1.028582,1.160631,1.103578,1.059403,1.045897,0.336831,0.000000,0.000000,0.000000,0.000000,NO
1.4.1,lang/java/src/java/org/apache/avro/mapred/AvroUtf8InputFormat.java,0.466829,0.000000,0.000000,0.000000,0.000000,0.000000,0.000000,0.000000,0.000000,0.000000,0.000000,0.011853,0.016046,0.044510,0.231804,0.234258,0.372287,0.328948,0.040961,0.000000,0.000000,NO
1.4.1,lang/java/src/java/org/apache/avro/mapred/SequenceFileInputFormat.java,0.118263,0.204688,0.487176,0.000000,1.265598,0.068440,0.101414,0.175702,0.135231,0.230614,0.382734,0.036876,0.048137,0.138477,0.375485,0.308263,0.319103,0.000000,0.000000,0.000000,0.000000,NO
1.4.1,lang/java/src/java/org/apache/avro/mapred/SequenceFileRecordReader.java,0.068468,0.131000,0.487176,0.000000,1.265598,0.136880,0.202827,0.351403,0.083219,0.141916,0.235529,1.041752,1.160631,0.977994,1.059403,0.897512,0.319103,0.000000,0.000000,0.000000,0.000000,NO
1.4.1,lang/java/src/java/org/apache/avro/mapred/HadoopCombiner.java,0.199180,0.000000,0.000000,0.000000,0.000000,0.000000,0.000000,0.000000,0.000000,0.000000,0.000000,0.048729,0.098948,0.365975,0.162838,0.182164,0.372287,0.000000,0.000000,0.000000,0.000000,NO
1.4.1,lang/java/src/java/org/apache/avro/mapred/AvroKey.java,0.024898,0.000000,0.000000,0.000000,0.000000,0.000000,0.000000,0.000000,0.000000,0.000000,0.000000,1.028582,1.160631,1.103578,1.059403,1.045897,0.336831,0.000000,0.000000,0.000000,0.000000,NO
1.4.1,lang/java/src/java/org/apache/avro/mapred/AvroCollector.java,0.037346,0.000000,0.000000,0.000000,0.000000,0.000000,0.000000,0.000000,0.000000,0.000000,0.000000,1.028582,1.160631,1.103578,1.059403,1.021904,0.319103,0.000000,0.000000,0.000000,0.000000,NO
1.4.1,lang/java/src/java/org/apache/avro/io/ValidatingDecoder.java,1.151512,0.000000,0.000000,0.531930,0.000000,0.000000,0.000000,0.000000,0.000000,0.000000,0.000000,0.784936,1.160631,0.589517,0.911891,0.979373,0.390015,0.657895,0.409606,0.000000,0.000000,NO
1.4.1,lang/java/src/java/org/apache/avro/io/ValidatingEncoder.java,0.989678,0.098250,0.487176,1.063860,1.265598,0.136880,0.202827,0.351403,0.124829,0.212874,0.353293,0.782302,1.160631,0.652820,0.911891,0.959893,0.443198,0.328948,0.081921,0.000000,0.000000,NO
1.4.1,lang/java/src/java/org/apache/avro/io/DirectBinaryDecoder.java,0.958556,0.000000,0.000000,0.000000,0.000000,0.000000,0.000000,0.000000,0.000000,0.000000,0.000000,0.757279,1.160631,0.710931,0.915723,0.807595,0.478654,0.986843,0.614410,0.000000,0.000000,YES
1.4.1,lang/java/src/java/org/apache/avro/io/Encoder.java,0.261424,0.147375,0.487176,0.000000,1.265598,0.193914,0.287339,0.497821,0.166438,0.283832,0.471057,1.044386,1.160631,0.784374,1.059403,1.066545,3.864690,0.328948,0.040961,0.000000,0.000000,NO
1.4.1,lang/java/src/java/org/apache/avro/io/Decoder.java,0.199180,0.000000,0.000000,0.000000,0.000000,0.000000,0.000000,0.000000,0.000000,0.000000,0.000000,1.101017,1.160631,0.689088,1.059403,1.089397,4.006514,0.000000,0.000000,0.000000,0.000000,NO
1.4.1,lang/java/src/java/org/apache/avro/io/DatumWriter.java,0.043571,0.000000,0.000000,0.000000,0.000000,0.000000,0.000000,0.000000,0.000000,0.000000,0.000000,1.011461,1.160631,1.085208,1.059403,1.174791,0.407743,0.000000,0.000000,0.000000,0.000000,NO
1.4.1,lang/java/src/java/org/apache/avro/io/ResolvingDecoder.java,0.784273,0.000000,0.000000,1.063860,0.000000,0.000000,0.000000,0.000000,0.000000,0.000000,0.000000,0.849469,1.160631,0.425322,0.911891,0.840229,1.879161,1.973686,0.860174,0.000000,0.000000,YES
1.4.1,lang/java/src/java/org/apache/avro/io/JsonEncoder.java,1.232429,0.073688,0.487176,1.595789,1.265598,0.079847,0.118316,0.204985,0.052012,0.088698,0.147205,0.791521,1.160631,0.540420,0.860166,0.893016,0.372287,0.986843,0.573449,0.000000,0.000000,NO
1.4.1,lang/java/src/java/org/apache/avro/io/DatumReader.java,0.043571,0.000000,0.000000,0.000000,0.000000,0.000000,0.000000,0.000000,0.000000,0.000000,0.000000,0.931124,1.160631,0.999013,1.059403,1.161121,0.425470,0.000000,0.000000,0.000000,0.000000,NO
1.4.1,lang/java/src/java/org/apache/avro/io/ParsingDecoder.java,0.292546,0.000000,0.000000,0.000000,0.000000,0.000000,0.000000,0.000000,0.000000,0.000000,0.000000,0.687477,1.160631,1.721072,0.860166,0.962083,0.336831,3.947372,0.532488,0.000000,0.000000,NO
1.4.1,lang/java/src/java/org/apache/avro/generic/GenericArray.java,0.037346,0.000000,0.000000,0.000000,0.000000,0.000000,0.000000,0.000000,0.000000,0.000000,0.000000,1.035167,1.160631,0.863833,1.059403,1.035619,0.390015,0.000000,0.000000,0.000000,0.000000,NO
1.4.1,lang/java/src/java/org/apache/avro/generic/IndexedRecord.java,0.031122,0.000000,0.000000,0.531930,0.000000,0.000000,0.000000,0.000000,0.000000,0.000000,0.000000,1.057556,1.160631,0.882517,1.059403,0.989423,0.425470,0.000000,0.000000,0.000000,0.000000,NO
1.4.1,lang/java/src/java/org/apache/avro/generic/GenericFixed.java,0.024898,0.000000,0.000000,0.000000,0.000000,0.000000,0.000000,0.000000,0.000000,0.000000,0.000000,0.973268,1.160631,1.218269,1.059403,1.169042,0.336831,0.000000,0.000000,0.000000,0.000000,NO
1.4.1,lang/java/src/java/org/apache/avro/generic/GenericContainer.java,0.031122,0.000000,0.000000,0.000000,0.000000,0.000000,0.000000,0.000000,0.000000,0.000000,0.000000,0.979853,1.160631,1.226511,1.059403,1.157346,0.336831,0.000000,0.000000,0.000000,0.000000,NO
1.4.1,lang/java/src/java/org/apache/avro/generic/GenericRecord.java,0.031122,0.000000,0.000000,0.531930,0.000000,0.000000,0.000000,0.000000,0.000000,0.000000,0.000000,1.008827,1.160631,0.947084,1.059403,1.040816,0.372287,0.000000,0.000000,0.000000,0.000000,NO
1.4.1,lang/java/src/java/org/apache/avro/AvroTypeException.java,0.043571,0.000000,0.000000,0.000000,0.000000,0.000000,0.000000,0.000000,0.000000,0.000000,0.000000,0.993023,1.160631,1.065426,1.059403,1.162058,0.319103,0.000000,0.000000,0.000000,0.000000,NO
1.4.1,lang/java/src/java/org/apache/avro/tool/DataFileReadTool.java,0.311219,0.024563,0.487176,0.000000,1.265598,0.022813,0.033805,0.058567,0.010402,0.017740,0.029441,0.617676,1.160631,1.159745,0.551733,0.597397,0.372287,0.328948,0.081921,0.000000,0.000000,NO
1.4.1,lang/java/src/java/org/apache/avro/tool/Tool.java,0.056019,0.000000,0.000000,0.000000,0.000000,0.000000,0.000000,0.000000,0.000000,0.000000,0.000000,0.996974,1.160631,0.680696,1.059403,0.985966,0.673662,0.000000,0.000000,0.000000,0.000000,NO
1.4.1,lang/java/src/java/org/apache/avro/tool/ToTextTool.java,0.348566,0.000000,0.000000,0.000000,0.000000,0.000000,0.000000,0.000000,0.000000,0.000000,0.000000,0.007902,0.016046,0.059347,0.226057,0.252886,0.319103,0.328948,0.122882,0.000000,0.000000,NO
1.4.1,lang/java/src/java/org/apache/avro/tool/DataFileGetSchemaTool.java,0.186732,0.000000,0.000000,0.000000,0.000000,0.000000,0.000000,0.000000,0.000000,0.000000,0.000000,1.002242,1.160631,0.684293,1.059403,0.879452,0.319103,0.328948,0.040961,0.000000,0.000000,NO
1.4.1,lang/java/src/java/org/apache/avro/file/LengthLimitedInputStream.java,0.329893,0.000000,0.000000,0.000000,0.000000,0.000000,0.000000,0.000000,0.000000,0.000000,0.000000,0.021072,0.042788,0.158260,0.507671,0.567923,0.390015,0.657895,0.204803,0.000000,0.000000,NO
1.4.1,lang/java/src/java/org/apache/avro/file/Codec.java,0.099590,0.000000,0.000000,0.000000,0.000000,0.000000,0.000000,0.000000,0.000000,0.000000,0.000000,1.031216,1.160631,0.774482,1.059403,0.909736,0.567294,0.000000,0.000000,0.000000,0.000000,NO
1.4.1,lang/java/src/java/org/apache/avro/file/FileReader.java,0.074693,0.401188,0.487176,0.000000,1.265598,0.558927,0.828211,1.434897,0.509718,0.869236,1.442613,0.013170,0.026743,0.098912,0.051725,0.057864,0.514110,0.000000,0.000000,0.000000,0.000000,NO
1.4.1,lang/java/src/java/org/apache/avro/file/SeekableFileInput.java,0.080917,0.000000,0.000000,0.000000,0.000000,0.000000,0.000000,0.000000,0.000000,0.000000,0.000000,0.953513,1.160631,1.193540,1.059403,1.164871,0.319103,0.000000,0.000000,0.000000,0.000000,NO
1.4.1,lang/java/src/java/org/apache/avro/file/DataFileConstants.java,0.087141,0.000000,0.000000,0.531930,0.000000,0.000000,0.000000,0.000000,0.000000,0.000000,0.000000,0.986438,1.160631,0.823169,1.059403,1.042844,0.354559,0.000000,0.000000,0.000000,0.000000,NO
1.4.1,lang/java/src/java/org/apache/avro/file/SeekableInput.java,0.049795,0.000000,0.000000,0.531930,0.000000,0.000000,0.000000,0.000000,0.000000,0.000000,0.000000,0.960098,1.160631,1.201783,1.059403,1.161725,0.390015,0.000000,0.000000,0.000000,0.000000,NO
1.4.1,lang/java/src/java/org/apache/avro/reflect/ReflectRequestor.java,0.267649,0.000000,0.000000,0.000000,0.000000,0.000000,0.000000,0.000000,0.000000,0.000000,0.000000,1.144479,1.160631,0.661190,1.059403,1.076701,0.372287,0.000000,0.000000,0.000000,0.000000,NO
1.4.1,lang/java/src/java/org/apache/avro/reflect/Union.java,0.074693,0.000000,0.000000,0.531930,0.000000,0.000000,0.000000,0.000000,0.000000,0.000000,0.000000,1.028582,1.160631,0.772504,1.059403,1.055837,0.443198,0.000000,0.000000,0.000000,0.000000,NO
1.4.1,lang/java/src/java/org/apache/avro/reflect/Stringable.java,0.062244,0.000000,0.000000,1.063860,0.000000,0.000000,0.000000,0.000000,0.000000,0.000000,0.000000,1.021997,1.160631,0.852843,1.059403,1.088368,0.390015,0.000000,0.000000,0.000000,0.000000,NO
1.4.1,lang/java/src/java/org/apache/avro/reflect/Nullable.java,0.062244,0.000000,0.000000,1.063860,0.000000,0.000000,0.000000,0.000000,0.000000,0.000000,0.000000,1.028582,1.160631,0.772504,1.059403,1.041078,0.372287,0.000000,0.000000,0.000000,0.000000,NO
1.5.0,lang/java/mapred/src/main/java/org/apache/avro/mapred/SequenceFileInputFormat.java,0.118263,0.204688,0.974352,0.000000,2.531197,0.068440,0.101414,0.087851,0.135231,0.230614,0.191367,0.462269,0.863787,1.157273,0.660930,0.627586,0.319103,0.000000,0.000000,0.000000,0.000000,NO
1.5.0,lang/java/mapred/src/main/java/org/apache/avro/mapred/AvroValue.java,0.031122,0.024563,0.974352,0.000000,2.531197,0.034220,0.050707,0.043925,0.031207,0.053219,0.044162,1.459243,1.160631,1.217719,1.344848,1.328249,0.354559,0.000000,0.000000,0.000000,0.000000,NO
1.5.0,lang/java/mapred/src/main/java/org/apache/avro/mapred/AvroKey.java,0.031122,0.024563,0.974352,0.000000,2.531197,0.034220,0.050707,0.043925,0.031207,0.053219,0.044162,1.459243,1.160631,1.217719,1.344848,1.328249,0.354559,0.000000,0.000000,0.000000,0.000000,NO
1.5.0,lang/java/mapred/src/main/java/org/apache/avro/mapred/AvroCollector.java,0.037346,0.000000,0.487176,0.000000,1.265598,0.000000,0.000000,0.000000,0.000000,0.000000,0.000000,1.453975,1.160631,1.364988,1.344848,1.341227,0.319103,0.000000,0.000000,0.000000,0.000000,NO
1.5.0,lang/java/mapred/src/main/java/org/apache/avro/mapred/AvroUtf8InputFormat.java,0.466829,0.000000,0.487176,0.000000,1.265598,0.000000,0.000000,0.000000,0.000000,0.000000,0.000000,0.437246,0.863787,1.094628,0.517249,0.553581,0.372287,0.328948,0.040961,0.000000,0.000000,NO
1.5.0,lang/java/mapred/src/main/java/org/apache/avro/mapred/tether/TetherOutputFormat.java,0.298771,0.000000,0.487176,0.000000,1.265598,0.000000,0.000000,0.000000,0.000000,0.000000,0.000000,0.497828,0.863787,1.246294,0.660930,0.686206,0.336831,0.328948,0.040961,0.000000,0.000000,NO
1.5.0,lang/java/mapred/src/main/java/org/apache/avro/mapred/HadoopCombiner.java,0.199180,0.000000,0.487176,0.000000,1.265598,0.000000,0.000000,0.000000,0.000000,0.000000,0.000000,0.474122,0.863787,1.780420,0.448283,0.501487,0.372287,0.000000,0.000000,0.000000,0.000000,NO
1.5.0,lang/java/mapred/src/main/java/org/apache/avro/mapred/SequenceFileRecordReader.java,0.068468,0.131000,0.974352,0.000000,2.531197,0.136880,0.202827,0.175702,0.083219,0.141916,0.117764,1.467145,1.160631,1.224313,1.344848,1.216834,0.319103,0.000000,0.000000,0.000000,0.000000,NO
1.5.0,lang/java/avro/src/main/java/org/apache/avro/specific/FixedSize.java,0.074693,0.000000,0.487176,0.531930,1.265598,0.000000,0.000000,0.000000,0.000000,0.000000,0.000000,1.435537,1.160631,1.197937,1.344848,1.454802,0.390015,0.000000,0.000000,0.000000,0.000000,NO
1.5.0,lang/java/avro/src/main/java/org/apache/avro/specific/SpecificRecord.java,0.024898,0.000000,0.487176,0.531930,1.265598,0.000000,0.000000,0.000000,0.000000,0.000000,0.000000,1.457926,1.160631,1.216620,1.344848,1.447709,0.336831,0.000000,0.000000,0.000000,0.000000,NO
1.5.0,lang/java/avro/src/main/java/org/apache/avro/specific/SpecificFixed.java,0.043571,0.016375,0.974352,0.000000,2.531197,0.011407,0.016902,0.014642,0.000000,0.000000,0.000000,1.455292,1.160631,1.092980,1.344848,1.459091,0.319103,0.000000,0.000000,0.000000,0.000000,NO
1.5.0,lang/java/avro/src/main/java/org/apache/avro/UnresolvedUnionException.java,0.099590,0.294750,0.974352,0.531930,2.531197,0.159694,0.236632,0.204985,0.083219,0.141916,0.117764,1.053605,1.160631,1.318829,1.093886,0.770114,0.319103,0.000000,0.000000,0.000000,0.000000,NO
1.5.0,lang/java/avro/src/main/java/org/apache/avro/AvroRemoteException.java,0.093366,0.016375,0.974352,0.000000,1.265598,0.011407,0.016902,0.014642,0.000000,0.000000,0.000000,1.502704,1.160631,1.410735,1.344848,1.478743,0.319103,0.328948,0.040961,0.000000,0.000000,YES
1.5.0,lang/java/avro/src/main/java/org/apache/avro/reflect/Nullable.java,0.062244,0.000000,0.487176,1.063860,1.265598,0.000000,0.000000,0.000000,0.000000,0.000000,0.000000,1.453975,1.160631,0.992719,1.344848,1.360401,0.372287,0.000000,0.000000,0.000000,0.000000,NO
1.5.0,lang/java/avro/src/main/java/org/apache/avro/reflect/Stringable.java,0.062244,0.000000,0.487176,1.063860,1.265598,0.000000,0.000000,0.000000,0.000000,0.000000,0.000000,1.447390,1.160631,1.087045,1.344848,1.407690,0.390015,0.000000,0.000000,0.000000,0.000000,NO
1.5.0,lang/java/avro/src/main/java/org/apache/avro/reflect/Union.java,0.074693,0.000000,0.487176,0.531930,1.265598,0.000000,0.000000,0.000000,0.000000,0.000000,0.000000,1.453975,1.160631,0.992719,1.344848,1.375159,0.443198,0.000000,0.000000,0.000000,0.000000,NO
1.5.0,lang/java/avro/src/main/java/org/apache/avro/io/EncoderFactory.java,0.522849,3.029378,1.461528,0.000000,2.531197,4.026558,5.645358,3.445705,3.495208,5.924997,3.297400,0.121165,0.120342,0.303331,0.028736,0.031961,4.148337,0.328948,0.286725,0.000000,0.000000,NO
1.5.0,lang/java/avro/src/main/java/org/apache/avro/io/Decoder.java,0.186732,0.212875,1.948704,0.000000,2.531197,0.091253,0.067609,0.058567,0.124829,0.195135,0.088323,1.647575,1.160631,0.773370,1.344848,1.379657,3.882418,0.000000,0.000000,0.000000,0.000000,NO
1.5.0,lang/java/avro/src/main/java/org/apache/avro/io/DirectBinaryDecoder.java,0.958556,0.139188,1.948704,0.531930,2.531197,0.102660,0.067609,0.065888,0.010402,0.017740,0.007360,1.332811,1.160631,0.834160,1.201168,1.097004,0.478654,0.986843,0.614410,0.000000,0.000000,NO
1.5.0,lang/java/avro/src/main/java/org/apache/avro/io/JsonEncoder.java,1.288448,0.687751,1.948704,1.595789,3.796795,0.764248,0.946527,0.490500,0.520120,0.762799,0.368013,1.320958,1.160631,0.708635,1.145611,0.973755,0.992764,0.986843,0.655370,0.000000,0.000000,NO
1.5.0,lang/java/avro/src/main/java/org/apache/avro/io/ValidatingEncoder.java,0.946107,0.483063,2.435880,1.063860,3.796795,0.422047,0.338045,0.216699,0.156036,0.212874,0.088323,1.323592,1.160631,0.764667,1.197336,1.157018,0.620478,0.328948,0.081921,0.000000,0.000000,NO
1.5.0,lang/java/avro/src/main/java/org/apache/avro/io/ValidatingDecoder.java,1.170185,0.278375,1.461528,0.531930,2.531197,0.250947,0.253534,0.214746,0.104024,0.124177,0.098137,1.272228,1.160631,0.734994,1.197336,1.236199,0.514110,0.657895,0.450567,0.000000,0.000000,NO
1.5.0,lang/java/avro/src/main/java/org/apache/avro/io/DatumReader.java,0.043571,0.000000,0.487176,0.000000,1.265598,0.000000,0.000000,0.000000,0.000000,0.000000,0.000000,1.356517,1.160631,1.273495,1.344848,1.480443,0.425470,0.000000,0.000000,0.000000,0.000000,NO
1.5.0,lang/java/avro/src/main/java/org/apache/avro/io/DatumWriter.java,0.043571,0.000000,0.487176,0.000000,1.265598,0.000000,0.000000,0.000000,0.000000,0.000000,0.000000,1.436854,1.160631,1.348915,1.344848,1.494114,0.407743,0.000000,0.000000,0.000000,0.000000,NO
1.5.0,lang/java/avro/src/main/java/org/apache/avro/io/ParsingDecoder.java,0.304995,0.032750,0.974352,0.000000,2.531197,0.034220,0.050707,0.043925,0.020805,0.035479,0.029441,1.162917,1.160631,1.746789,1.145611,1.218152,0.336831,3.947372,0.532488,0.000000,0.000000,NO
1.5.0,lang/java/avro/src/main/java/org/apache/avro/io/DirectBinaryEncoder.java,0.466829,1.088939,0.487176,0.000000,1.265598,1.517088,2.248002,3.894720,1.383520,2.359355,3.915663,0.059265,0.120342,0.445105,0.028736,0.032147,0.797757,0.657895,0.245764,0.000000,0.000000,NO
1.5.0,lang/java/avro/src/main/java/org/apache/avro/io/ResolvingDecoder.java,0.896312,0.286563,1.461528,1.595789,3.796795,0.307980,0.236632,0.263552,0.197646,0.230614,0.186460,1.330177,1.160631,0.555007,1.197336,1.099586,1.879161,1.973686,1.024016,0.000000,0.000000,NO
1.5.0,lang/java/avro/src/main/java/org/apache/avro/io/BufferedBinaryEncoder.java,0.784273,1.694814,0.974352,0.000000,2.531197,2.349776,3.464965,3.016212,2.132493,3.636600,3.017710,0.109312,0.120342,0.410486,0.028736,0.032147,1.063676,0.986843,0.450567,0.000000,0.000000,NO
1.5.0,lang/java/avro/src/main/java/org/apache/avro/SchemaParseException.java,0.031122,0.000000,0.487176,0.000000,1.265598,0.000000,0.000000,0.000000,0.000000,0.000000,0.000000,1.377589,1.160631,1.478031,1.344848,1.495974,0.319103,0.000000,0.000000,0.000000,0.000000,NO
1.5.0,lang/java/avro/src/main/java/org/apache/avro/generic/GenericRecord.java,0.031122,0.000000,0.487176,0.531930,1.265598,0.000000,0.000000,0.000000,0.000000,0.000000,0.000000,1.434220,1.160631,1.196838,1.344848,1.360139,0.372287,0.000000,0.000000,0.000000,0.000000,NO
1.5.0,lang/java/avro/src/main/java/org/apache/avro/generic/GenericContainer.java,0.031122,0.000000,0.487176,0.000000,1.265598,0.000000,0.000000,0.000000,0.000000,0.000000,0.000000,1.405246,1.160631,1.507704,1.344848,1.476669,0.336831,0.000000,0.000000,0.000000,0.000000,NO
1.5.0,lang/java/avro/src/main/java/org/apache/avro/generic/GenericFixed.java,0.024898,0.016375,0.974352,0.000000,2.531197,0.011407,0.016902,0.014642,0.000000,0.000000,0.000000,1.426318,1.160631,1.339024,1.344848,1.459283,0.336831,0.000000,0.000000,0.000000,0.000000,NO
1.5.0,lang/java/avro/src/main/java/org/apache/avro/generic/GenericDatumWriter.java,0.846517,0.270188,2.923057,2.127719,3.796795,0.148287,0.084511,0.063448,0.156036,0.124177,0.073603,1.718694,1.160631,0.496463,1.344848,1.327075,0.797757,0.657895,0.819213,0.000000,0.000000,NO
1.5.0,lang/java/avro/src/main/java/org/apache/avro/generic/GenericArray.java,0.037346,0.122813,0.974352,0.000000,2.531197,0.045627,0.067609,0.058567,0.072817,0.124177,0.103044,1.459243,1.160631,1.095947,1.344848,1.354942,0.390015,0.000000,0.000000,0.000000,0.000000,NO
1.5.0,lang/java/avro/src/main/java/org/apache/avro/generic/IndexedRecord.java,0.031122,0.000000,0.487176,0.531930,1.265598,0.000000,0.000000,0.000000,0.000000,0.000000,0.000000,1.482949,1.160631,1.113751,1.344848,1.308746,0.425470,0.000000,0.000000,0.000000,0.000000,NO
1.5.0,lang/java/avro/src/main/java/org/apache/avro/file/SeekableFileInput.java,0.080917,0.000000,0.487176,0.000000,1.265598,0.000000,0.000000,0.000000,0.000000,0.000000,0.000000,1.378906,1.160631,1.479444,1.344848,1.484194,0.319103,0.000000,0.000000,0.000000,0.000000,NO
1.5.0,lang/java/avro/src/main/java/org/apache/avro/file/Codec.java,0.099590,0.000000,0.487176,0.000000,1.265598,0.000000,0.000000,0.000000,0.000000,0.000000,0.000000,1.456609,1.160631,0.994517,1.344848,1.229059,0.567294,0.000000,0.000000,0.000000,0.000000,NO
1.5.0,lang/java/avro/src/main/java/org/apache/avro/file/FileReader.java,0.074693,0.401188,0.974352,0.000000,2.531197,0.558927,0.828211,0.717448,0.509718,0.869236,0.721306,0.438563,0.863787,1.646888,0.337170,0.377187,0.514110,0.000000,0.000000,0.000000,0.000000,NO
1.5.0,lang/java/avro/src/main/java/org/apache/avro/file/DataFileConstants.java,0.093366,0.032750,0.974352,0.531930,2.531197,0.034220,0.050707,0.043925,0.020805,0.035479,0.029441,1.417099,1.160631,0.967541,1.344848,1.329058,0.372287,0.000000,0.000000,0.000000,0.000000,NO
1.5.0,lang/java/avro/src/main/java/org/apache/avro/file/LengthLimitedInputStream.java,0.329893,0.000000,0.487176,0.000000,1.265598,0.000000,0.000000,0.000000,0.000000,0.000000,0.000000,0.446465,0.863787,1.676562,0.793115,0.887246,0.390015,0.657895,0.204803,0.000000,0.000000,NO
1.5.0,lang/java/avro/src/main/java/org/apache/avro/file/SeekableInput.java,0.056019,0.024563,0.974352,0.531930,2.531197,0.022813,0.033805,0.029284,0.010402,0.017740,0.014721,1.389442,1.160631,1.304405,1.344848,1.444839,0.390015,0.000000,0.000000,0.000000,0.000000,NO
1.5.0,lang/java/avro/src/main/java/org/apache/avro/file/DataFileReader12.java,1.045697,1.874939,1.461528,0.000000,2.531197,2.600723,3.735402,2.225554,2.361346,3.920432,2.227708,0.484658,0.863787,1.213323,0.178164,0.193469,0.709117,0.986843,0.778252,0.000000,0.000000,NO
1.5.0,lang/java/avro/src/main/java/org/apache/avro/util/ByteBufferInputStream.java,0.323668,0.032750,0.974352,0.000000,1.265598,0.034220,0.050707,0.043925,0.020805,0.035479,0.029441,1.502704,1.160631,1.128588,1.344848,1.479090,0.531838,0.657895,0.286725,0.000000,0.000000,YES
1.5.0,lang/java/avro/src/main/java/org/apache/avro/util/ByteBufferOutputStream.java,0.435707,0.032750,0.974352,0.000000,1.265598,0.034220,0.050707,0.043925,0.020805,0.035479,0.029441,1.552751,1.160631,1.166175,1.344848,1.380493,0.443198,0.328948,0.245764,0.000000,0.000000,NO
1.5.0,lang/java/avro/src/main/java/org/apache/avro/AvroRuntimeException.java,0.049795,0.000000,0.487176,0.000000,1.265598,0.000000,0.000000,0.000000,0.000000,0.000000,0.000000,1.389442,1.160631,1.304405,1.344848,1.477100,0.319103,0.000000,0.000000,0.000000,0.000000,NO
1.5.0,lang/java/avro/src/main/java/org/apache/avro/AvroTypeException.java,0.043571,0.000000,0.487176,0.000000,1.265598,0.000000,0.000000,0.000000,0.000000,0.000000,0.000000,1.418416,1.160631,1.331605,1.344848,1.481380,0.319103,0.000000,0.000000,0.000000,0.000000,NO
1.5.0,lang/java/ipc/src/main/java/org/apache/avro/ipc/specific/SpecificResponder.java,0.423258,0.368438,2.435880,2.127719,2.531197,0.228134,0.253534,0.117134,0.135231,0.141916,0.076547,1.726596,1.160631,0.682494,1.344848,1.104704,0.319103,0.328948,0.163843,0.000000,0.000000,YES
1.5.0,lang/java/ipc/src/main/java/org/apache/avro/ipc/specific/SpecificRequestor.java,0.497951,0.212875,1.948704,1.595789,3.796795,0.216727,0.135218,0.139097,0.124829,0.124177,0.088323,1.726596,1.160631,0.648369,1.344848,1.238654,0.390015,0.328948,0.081921,0.000000,0.000000,YES
1.5.0,lang/java/ipc/src/main/java/org/apache/avro/ipc/Server.java,0.043571,0.000000,0.487176,0.000000,1.265598,0.000000,0.000000,0.000000,0.000000,0.000000,0.000000,1.456609,1.160631,1.215521,1.344848,1.399167,0.390015,0.000000,0.000000,0.000000,0.000000,NO
1.5.0,lang/java/ipc/src/main/java/org/apache/avro/ipc/reflect/ReflectRequestor.java,0.298771,0.171938,1.461528,0.000000,2.531197,0.148287,0.135218,0.126896,0.052012,0.053219,0.049068,1.685768,1.160631,0.791298,1.344848,1.331219,0.372287,0.000000,0.000000,0.000000,0.000000,YES
1.5.0,lang/java/ipc/src/main/java/org/apache/avro/ipc/reflect/ReflectResponder.java,0.211629,0.090063,1.461528,1.595789,2.531197,0.079847,0.084511,0.068328,0.031207,0.053219,0.029441,1.820103,1.160631,0.650936,1.344848,1.344422,0.336831,0.328948,0.040961,0.000000,0.000000,NO
1.5.0,lang/java/ipc/src/main/java/org/apache/avro/ipc/stats/IntegerHistogram.java,0.174283,0.000000,0.487176,0.531930,1.265598,0.000000,0.000000,0.000000,0.000000,0.000000,0.000000,1.064141,1.160631,1.141729,1.093886,0.998649,0.390015,0.328948,0.081921,0.000000,0.000000,NO
1.5.0,lang/java/ipc/src/main/java/org/apache/avro/ipc/stats/FloatHistogram.java,0.168058,0.000000,0.487176,0.531930,1.265598,0.000000,0.000000,0.000000,0.000000,0.000000,0.000000,1.058873,1.160631,1.325423,1.093886,1.076442,0.390015,0.328948,0.081921,0.000000,0.000000,NO
1.5.0,lang/java/ipc/src/main/java/org/apache/avro/ipc/stats/StaticServlet.java,0.118263,0.000000,0.487176,0.000000,1.265598,0.000000,0.000000,0.000000,0.000000,0.000000,0.000000,0.482024,0.863787,1.206729,0.434872,0.464681,0.390015,0.328948,0.081921,0.000000,0.000000,NO
1.5.0,lang/java/ipc/src/main/java/org/apache/avro/ipc/HttpServer.java,0.410810,0.343875,0.974352,1.063860,2.531197,0.456267,0.676091,0.585672,0.395291,0.674101,0.559380,1.047020,1.160631,1.310587,1.011510,0.774921,0.496382,0.328948,0.122882,0.000000,0.000000,NO
1.5.0,lang/java/ipc/src/main/java/org/apache/avro/ipc/LocalTransceiver.java,0.168058,0.000000,0.487176,0.000000,1.265598,0.000000,0.000000,0.000000,0.000000,0.000000,0.000000,1.414465,1.160631,1.180352,1.344848,1.361298,0.319103,0.000000,0.000000,0.000000,0.000000,NO
1.5.0,lang/java/ipc/src/main/java/org/apache/avro/ipc/generic/GenericResponder.java,0.248976,0.204688,1.461528,1.063860,2.531197,0.216727,0.253534,0.185463,0.135231,0.195135,0.127578,1.573823,1.160631,0.985001,1.344848,1.303899,0.319103,0.328948,0.040961,0.000000,0.000000,NO
1.5.0,lang/java/ipc/src/main/java/org/apache/avro/ipc/generic/GenericRequestor.java,0.298771,0.049125,0.974352,1.063860,1.265598,0.045627,0.067609,0.058567,0.020805,0.035479,0.029441,1.679183,1.160631,0.840754,1.344848,1.348571,0.336831,0.657895,0.163843,0.000000,0.000000,YES
1.5.0,lang/java/ipc/src/main/java/org/apache/avro/ipc/ResponderServlet.java,0.186732,0.000000,0.487176,0.000000,1.265598,0.000000,0.000000,0.000000,0.000000,0.000000,0.000000,1.010144,1.160631,1.896641,1.011510,1.124487,0.319103,0.328948,0.040961,0.000000,0.000000,NO
1.5.0,lang/java/ipc/src/main/java/org/apache/avro/ipc/trace/TraceNode.java,0.404585,0.000000,0.487176,0.000000,1.265598,0.000000,0.000000,0.000000,0.000000,0.000000,0.000000,0.480707,0.863787,1.203432,0.419547,0.454464,1.028220,0.657895,0.081921,0.000000,0.000000,NO
1.5.0,lang/java/ipc/src/main/java/org/apache/avro/ipc/trace/SpanStorage.java,0.068468,0.000000,0.487176,0.531930,1.265598,0.000000,0.000000,0.000000,0.000000,0.000000,0.000000,1.472413,1.160631,1.005308,1.344848,1.158624,0.691390,0.000000,0.000000,0.000000,0.000000,NO
1.5.0,lang/java/ipc/src/main/java/org/apache/avro/ipc/trace/StaticServlet.java,0.136937,0.000000,0.487176,0.000000,1.265598,0.000000,0.000000,0.000000,0.000000,0.000000,0.000000,0.458318,0.863787,1.721072,0.385063,0.430764,0.390015,0.328948,0.122882,0.000000,0.000000,NO
1.5.0,lang/java/ipc/src/main/java/org/apache/avro/ipc/trace/TracePluginConfiguration.java,0.273873,0.155563,0.974352,0.000000,2.531197,0.205320,0.304241,0.263552,0.176841,0.301572,0.250249,0.505731,0.863787,0.759646,0.419547,0.452830,0.638206,0.328948,0.040961,0.000000,0.000000,NO
1.5.0,lang/java/ipc/src/main/java/org/apache/avro/ipc/Ipc.java,0.161834,0.433938,0.974352,0.000000,2.531197,0.604554,0.895820,0.776016,0.551327,0.940194,0.780189,0.433295,0.863787,1.627106,0.178164,0.199309,0.390015,0.657895,0.163843,0.000000,0.000000,NO
1.5.0,lang/java/tools/src/main/java/org/apache/avro/tool/DataFileGetSchemaTool.java,0.186732,0.000000,0.487176,0.000000,1.265598,0.000000,0.000000,0.000000,0.000000,0.000000,0.000000,1.427635,1.160631,0.893507,1.344848,1.198775,0.319103,0.328948,0.040961,0.000000,0.000000,NO
1.5.0,lang/java/tools/src/main/java/org/apache/avro/tool/ToTextTool.java,0.348566,0.000000,0.487176,0.000000,1.265598,0.000000,0.000000,0.000000,0.000000,0.000000,0.000000,0.433295,0.863787,1.627106,0.511502,0.572209,0.319103,0.328948,0.122882,0.000000,0.000000,NO
1.5.0,lang/java/tools/src/main/java/org/apache/avro/tool/TetherTool.java,0.410810,0.777813,0.974352,0.531930,1.265598,1.083635,1.318377,1.390971,0.988228,1.383682,1.398451,0.023706,0.032091,0.089021,0.109197,0.115254,0.301375,0.328948,0.122882,0.000000,0.000000,NO
1.5.0,lang/java/tools/src/main/java/org/apache/avro/tool/Tool.java,0.056019,0.000000,0.974352,0.000000,1.265598,0.000000,0.000000,0.000000,0.000000,0.000000,0.000000,1.518509,1.160631,0.877275,1.344848,1.305288,0.673662,0.000000,0.000000,0.000000,0.000000,NO
1.5.0,lang/java/tools/src/main/java/org/apache/avro/tool/DataFileReadTool.java,0.304995,0.106438,1.948704,0.000000,3.796795,0.068440,0.050707,0.043925,0.031207,0.035479,0.022081,1.111554,1.160631,1.192598,0.837177,0.827126,0.372287,0.328948,0.081921,0.000000,0.000000,NO
1.5.0,lang/java/tools/src/main/java/org/apache/avro/tool/SpecificCompilerTool.java,0.230302,0.524001,0.974352,0.000000,1.265598,0.730028,0.794407,0.937075,0.665754,0.833757,0.942114,0.111946,0.195221,0.420377,0.082377,0.089876,0.372287,0.657895,0.122882,0.000000,0.000000,NO
1.5.0,lang/java/tools/src/main/java/org/apache/avro/tool/RecodecTool.java,0.535297,0.941563,0.974352,0.000000,2.531197,1.311768,1.943761,1.683807,1.196277,2.040044,1.692862,0.431978,0.863787,1.622160,0.210731,0.235742,0.319103,0.657895,0.327685,0.000000,0.000000,NO
1.5.0,lang/java/tools/src/main/java/org/apache/avro/tool/InduceSchemaTool.java,0.304995,0.032750,0.974352,0.000000,1.265598,0.022813,0.033805,0.029284,0.000000,0.000000,0.000000,1.128675,1.160631,1.059597,0.913807,0.973735,0.354559,0.986843,0.204803,0.000000,0.000000,NO
1.5.0,lang/java/compiler/src/main/java/org/apache/avro/compiler/specific/SchemaTask.java,0.056019,0.024563,0.974352,0.000000,1.265598,0.022813,0.033805,0.029284,0.010402,0.017740,0.014721,1.509290,1.160631,1.259482,1.344848,1.443381,0.319103,0.000000,0.000000,0.000000,0.000000,NO
1.5.0,lang/java/compiler/src/main/java/org/apache/avro/compiler/specific/SpecificCompiler.java,2.103843,3.258628,2.435880,3.191579,3.796795,2.224303,1.724032,1.142061,1.872433,1.490119,1.059879,1.975510,1.160631,0.345043,1.344848,1.063415,0.992764,1.315791,2.908206,0.000000,0.000000,NO
1.5.0,lang/java/compiler/src/main/java/org/apache/avro/compiler/specific/ProtocolTask.java,0.292546,0.024563,0.974352,0.000000,1.265598,0.022813,0.033805,0.029284,0.010402,0.017740,0.014721,1.509290,1.160631,1.259482,1.344848,1.451308,0.390015,0.657895,0.245764,0.000000,0.000000,NO
1.5.0,lang/java/maven-plugin/src/main/java/org/apache/avro/mojo/ProtocolMojo.java,0.130712,0.556751,0.974352,0.000000,1.265598,0.764248,1.115550,0.981001,0.686559,1.170808,0.971556,0.521535,0.863787,1.958461,0.166669,0.183677,0.655934,0.000000,0.000000,0.000000,0.000000,NO
1.5.0,lang/java/maven-plugin/src/main/java/org/apache/avro/mojo/AbstractAvroMojo.java,0.429483,1.170814,0.487176,0.000000,1.265598,1.631155,2.417025,4.187556,1.487544,2.536750,4.210074,0.425393,0.863787,3.194864,0.166669,0.186450,1.010492,0.657895,0.286725,0.000000,0.000000,NO
1.5.0,lang/java/maven-plugin/src/main/java/org/apache/avro/mojo/SchemaMojo.java,0.130712,0.556751,0.974352,0.000000,1.265598,0.764248,1.115550,0.981001,0.686559,1.170808,0.971556,0.521535,0.863787,1.958461,0.166669,0.183677,0.655934,0.000000,0.000000,0.000000,0.000000,NO
1.5.0,lang/java/maven-plugin/src/main/java/org/apache/avro/mojo/IDLProtocolMojo.java,0.199180,0.687751,0.974352,0.000000,1.265598,0.923941,1.318377,1.185986,0.811388,1.383682,1.148202,0.521535,0.863787,1.958461,0.166669,0.179715,0.655934,0.328948,0.040961,0.000000,0.000000,NO
1.5.1,lang/java/mapred/src/main/java/org/apache/avro/mapred/SequenceFileInputFormat.java,0.118263,0.000000,0.000000,0.000000,0.000000,0.000000,0.000000,0.000000,0.000000,0.000000,0.000000,0.462269,0.863787,1.157273,0.766295,0.745457,0.319103,0.000000,0.000000,0.000000,0.000000,NO
1.5.1,lang/java/mapred/src/main/java/org/apache/avro/mapred/AvroValue.java,0.031122,0.000000,0.000000,0.000000,0.000000,0.000000,0.000000,0.000000,0.000000,0.000000,0.000000,1.459243,1.160631,1.217719,1.450214,1.446120,0.354559,0.000000,0.000000,0.000000,0.000000,NO
1.5.1,lang/java/mapred/src/main/java/org/apache/avro/mapred/AvroKey.java,0.031122,0.000000,0.000000,0.000000,0.000000,0.000000,0.000000,0.000000,0.000000,0.000000,0.000000,1.459243,1.160631,1.217719,1.450214,1.446120,0.354559,0.000000,0.000000,0.000000,0.000000,NO
1.5.1,lang/java/mapred/src/main/java/org/apache/avro/mapred/AvroCollector.java,0.037346,0.000000,0.000000,0.000000,0.000000,0.000000,0.000000,0.000000,0.000000,0.000000,0.000000,1.453975,1.160631,1.364988,1.450214,1.459097,0.319103,0.000000,0.000000,0.000000,0.000000,NO
1.5.1,lang/java/mapred/src/main/java/org/apache/avro/mapred/AvroUtf8InputFormat.java,0.466829,0.000000,0.000000,0.000000,0.000000,0.000000,0.000000,0.000000,0.000000,0.000000,0.000000,0.437246,0.863787,1.094628,0.622615,0.671451,0.372287,0.328948,0.040961,0.000000,0.000000,NO
1.5.1,lang/java/mapred/src/main/java/org/apache/avro/mapred/tether/TetherOutputFormat.java,0.298771,0.000000,0.000000,0.000000,0.000000,0.000000,0.000000,0.000000,0.000000,0.000000,0.000000,0.497828,0.863787,1.246294,0.766295,0.804077,0.336831,0.328948,0.040961,0.000000,0.000000,NO
1.5.1,lang/java/mapred/src/main/java/org/apache/avro/mapred/tether/TetherJob.java,0.311219,0.000000,0.000000,0.531930,0.000000,0.000000,0.000000,0.000000,0.000000,0.000000,0.000000,0.530754,0.863787,0.996540,0.622615,0.551505,0.478654,0.328948,0.081921,0.000000,0.000000,NO
1.5.1,lang/java/mapred/src/main/java/org/apache/avro/mapred/HadoopCombiner.java,0.199180,0.000000,0.000000,0.000000,0.000000,0.000000,0.000000,0.000000,0.000000,0.000000,0.000000,0.474122,0.863787,1.780420,0.553648,0.619357,0.372287,0.000000,0.000000,0.000000,0.000000,NO
1.5.1,lang/java/mapred/src/main/java/org/apache/avro/mapred/SequenceFileRecordReader.java,0.068468,0.000000,0.000000,0.000000,0.000000,0.000000,0.000000,0.000000,0.000000,0.000000,0.000000,1.467145,1.160631,1.224313,1.450214,1.334705,0.319103,0.000000,0.000000,0.000000,0.000000,NO
1.5.1,lang/java/avro/src/main/java/org/apache/avro/specific/FixedSize.java,0.074693,0.000000,0.000000,0.531930,0.000000,0.000000,0.000000,0.000000,0.000000,0.000000,0.000000,1.435537,1.160631,1.197937,1.450214,1.572673,0.390015,0.000000,0.000000,0.000000,0.000000,NO
1.5.1,lang/java/avro/src/main/java/org/apache/avro/specific/SpecificRecord.java,0.024898,0.000000,0.000000,0.531930,0.000000,0.000000,0.000000,0.000000,0.000000,0.000000,0.000000,1.457926,1.160631,1.216620,1.450214,1.565580,0.336831,0.000000,0.000000,0.000000,0.000000,NO
1.5.1,lang/java/avro/src/main/java/org/apache/avro/specific/SpecificFixed.java,0.043571,0.000000,0.000000,0.000000,0.000000,0.000000,0.000000,0.000000,0.000000,0.000000,0.000000,1.455292,1.160631,1.092980,1.450214,1.576962,0.319103,0.000000,0.000000,0.000000,0.000000,NO
1.5.1,lang/java/avro/src/main/java/org/apache/avro/UnresolvedUnionException.java,0.099590,0.000000,0.000000,0.531930,0.000000,0.000000,0.000000,0.000000,0.000000,0.000000,0.000000,1.053605,1.160631,1.318829,1.199252,0.887985,0.319103,0.000000,0.000000,0.000000,0.000000,NO
1.5.1,lang/java/avro/src/main/java/org/apache/avro/reflect/Nullable.java,0.062244,0.000000,0.000000,1.063860,0.000000,0.000000,0.000000,0.000000,0.000000,0.000000,0.000000,1.453975,1.160631,0.992719,1.450214,1.478271,0.372287,0.000000,0.000000,0.000000,0.000000,NO
1.5.1,lang/java/avro/src/main/java/org/apache/avro/reflect/Stringable.java,0.062244,0.000000,0.000000,1.063860,0.000000,0.000000,0.000000,0.000000,0.000000,0.000000,0.000000,1.447390,1.160631,1.087045,1.450214,1.525561,0.390015,0.000000,0.000000,0.000000,0.000000,NO
1.5.1,lang/java/avro/src/main/java/org/apache/avro/reflect/Union.java,0.074693,0.000000,0.000000,0.531930,0.000000,0.000000,0.000000,0.000000,0.000000,0.000000,0.000000,1.453975,1.160631,0.992719,1.450214,1.493030,0.443198,0.000000,0.000000,0.000000,0.000000,NO
1.5.1,lang/java/avro/src/main/java/org/apache/avro/io/Decoder.java,0.186732,0.000000,0.000000,0.000000,0.000000,0.000000,0.000000,0.000000,0.000000,0.000000,0.000000,1.647575,1.160631,0.773370,1.450214,1.497528,3.882418,0.000000,0.000000,0.000000,0.000000,NO
1.5.1,lang/java/avro/src/main/java/org/apache/avro/io/DirectBinaryDecoder.java,0.958556,0.000000,0.000000,0.531930,0.000000,0.000000,0.000000,0.000000,0.000000,0.000000,0.000000,1.332811,1.160631,0.834160,1.306533,1.214875,0.478654,0.986843,0.614410,0.000000,0.000000,NO
1.5.1,lang/java/avro/src/main/java/org/apache/avro/io/ValidatingEncoder.java,0.946107,0.000000,0.000000,1.063860,0.000000,0.000000,0.000000,0.000000,0.000000,0.000000,0.000000,1.323592,1.160631,0.764667,1.302702,1.274889,0.620478,0.328948,0.081921,0.000000,0.000000,NO
1.5.1,lang/java/avro/src/main/java/org/apache/avro/io/ValidatingDecoder.java,1.170185,0.000000,0.000000,0.531930,0.000000,0.000000,0.000000,0.000000,0.000000,0.000000,0.000000,1.272228,1.160631,0.734994,1.302702,1.354070,0.514110,0.657895,0.450567,0.000000,0.000000,NO
1.5.1,lang/java/avro/src/main/java/org/apache/avro/io/DatumReader.java,0.043571,0.000000,0.000000,0.000000,0.000000,0.000000,0.000000,0.000000,0.000000,0.000000,0.000000,1.356517,1.160631,1.273495,1.450214,1.598314,0.425470,0.000000,0.000000,0.000000,0.000000,NO
1.5.1,lang/java/avro/src/main/java/org/apache/avro/io/DatumWriter.java,0.043571,0.000000,0.000000,0.000000,0.000000,0.000000,0.000000,0.000000,0.000000,0.000000,0.000000,1.436854,1.160631,1.348915,1.450214,1.611985,0.407743,0.000000,0.000000,0.000000,0.000000,NO
1.5.1,lang/java/avro/src/main/java/org/apache/avro/io/ParsingDecoder.java,0.304995,0.000000,0.000000,0.000000,0.000000,0.000000,0.000000,0.000000,0.000000,0.000000,0.000000,1.162917,1.160631,1.746789,1.250977,1.336023,0.336831,3.947372,0.532488,0.000000,0.000000,NO
1.5.1,lang/java/avro/src/main/java/org/apache/avro/io/ResolvingDecoder.java,0.896312,0.000000,0.000000,1.595789,0.000000,0.000000,0.000000,0.000000,0.000000,0.000000,0.000000,1.330177,1.160631,0.555007,1.302702,1.217457,1.879161,1.973686,1.024016,0.000000,0.000000,NO
1.5.1,lang/java/avro/src/main/java/org/apache/avro/SchemaParseException.java,0.031122,0.000000,0.000000,0.000000,0.000000,0.000000,0.000000,0.000000,0.000000,0.000000,0.000000,1.377589,1.160631,1.478031,1.450214,1.613845,0.319103,0.000000,0.000000,0.000000,0.000000,NO
1.5.1,lang/java/avro/src/main/java/org/apache/avro/generic/GenericRecord.java,0.031122,0.000000,0.000000,0.531930,0.000000,0.000000,0.000000,0.000000,0.000000,0.000000,0.000000,1.434220,1.160631,1.196838,1.450214,1.478010,0.372287,0.000000,0.000000,0.000000,0.000000,NO
1.5.1,lang/java/avro/src/main/java/org/apache/avro/generic/GenericContainer.java,0.031122,0.000000,0.000000,0.000000,0.000000,0.000000,0.000000,0.000000,0.000000,0.000000,0.000000,1.405246,1.160631,1.507704,1.450214,1.594539,0.336831,0.000000,0.000000,0.000000,0.000000,NO
1.5.1,lang/java/avro/src/main/java/org/apache/avro/generic/GenericFixed.java,0.024898,0.000000,0.000000,0.000000,0.000000,0.000000,0.000000,0.000000,0.000000,0.000000,0.000000,1.426318,1.160631,1.339024,1.450214,1.577154,0.336831,0.000000,0.000000,0.000000,0.000000,NO
1.5.1,lang/java/avro/src/main/java/org/apache/avro/generic/GenericDatumWriter.java,0.846517,0.000000,0.000000,2.127719,0.000000,0.000000,0.000000,0.000000,0.000000,0.000000,0.000000,1.718694,1.160631,0.496463,1.450214,1.444945,0.797757,0.657895,0.819213,0.000000,0.000000,YES
1.5.1,lang/java/avro/src/main/java/org/apache/avro/generic/GenericArray.java,0.037346,0.000000,0.000000,0.000000,0.000000,0.000000,0.000000,0.000000,0.000000,0.000000,0.000000,1.459243,1.160631,1.095947,1.450214,1.472813,0.390015,0.000000,0.000000,0.000000,0.000000,NO
1.5.1,lang/java/avro/src/main/java/org/apache/avro/generic/IndexedRecord.java,0.031122,0.000000,0.000000,0.531930,0.000000,0.000000,0.000000,0.000000,0.000000,0.000000,0.000000,1.482949,1.160631,1.113751,1.450214,1.426617,0.425470,0.000000,0.000000,0.000000,0.000000,NO
1.5.1,lang/java/avro/src/main/java/org/apache/avro/file/SeekableFileInput.java,0.080917,0.000000,0.000000,0.000000,0.000000,0.000000,0.000000,0.000000,0.000000,0.000000,0.000000,1.378906,1.160631,1.479444,1.450214,1.602065,0.319103,0.000000,0.000000,0.000000,0.000000,NO
1.5.1,lang/java/avro/src/main/java/org/apache/avro/file/Codec.java,0.099590,0.000000,0.000000,0.000000,0.000000,0.000000,0.000000,0.000000,0.000000,0.000000,0.000000,1.456609,1.160631,0.994517,1.450214,1.346929,0.567294,0.000000,0.000000,0.000000,0.000000,NO
1.5.1,lang/java/avro/src/main/java/org/apache/avro/file/FileReader.java,0.074693,0.000000,0.000000,0.000000,0.000000,0.000000,0.000000,0.000000,0.000000,0.000000,0.000000,0.438563,0.863787,1.646888,0.442535,0.495057,0.514110,0.000000,0.000000,0.000000,0.000000,NO
1.5.1,lang/java/avro/src/main/java/org/apache/avro/file/LengthLimitedInputStream.java,0.329893,0.000000,0.000000,0.000000,0.000000,0.000000,0.000000,0.000000,0.000000,0.000000,0.000000,0.446465,0.863787,1.676562,0.898481,1.005116,0.390015,0.657895,0.204803,0.000000,0.000000,NO
1.5.1,lang/java/avro/src/main/java/org/apache/avro/file/SeekableInput.java,0.056019,0.000000,0.000000,0.531930,0.000000,0.000000,0.000000,0.000000,0.000000,0.000000,0.000000,1.389442,1.160631,1.304405,1.450214,1.562710,0.390015,0.000000,0.000000,0.000000,0.000000,NO
1.5.1,lang/java/avro/src/main/java/org/apache/avro/AvroRuntimeException.java,0.049795,0.000000,0.000000,0.000000,0.000000,0.000000,0.000000,0.000000,0.000000,0.000000,0.000000,1.389442,1.160631,1.304405,1.450214,1.594971,0.319103,0.000000,0.000000,0.000000,0.000000,NO
1.5.1,lang/java/avro/src/main/java/org/apache/avro/AvroTypeException.java,0.043571,0.000000,0.000000,0.000000,0.000000,0.000000,0.000000,0.000000,0.000000,0.000000,0.000000,1.418416,1.160631,1.331605,1.450214,1.599251,0.319103,0.000000,0.000000,0.000000,0.000000,NO
1.5.1,lang/java/ipc/src/main/java/org/apache/avro/ipc/Server.java,0.043571,0.000000,0.000000,0.000000,0.000000,0.000000,0.000000,0.000000,0.000000,0.000000,0.000000,1.456609,1.160631,1.215521,1.450214,1.517038,0.390015,0.000000,0.000000,0.000000,0.000000,NO
1.5.1,lang/java/ipc/src/main/java/org/apache/avro/ipc/reflect/ReflectRequestor.java,0.298771,0.000000,0.000000,0.000000,0.000000,0.000000,0.000000,0.000000,0.000000,0.000000,0.000000,1.685768,1.160631,0.791298,1.450214,1.449090,0.372287,0.000000,0.000000,0.000000,0.000000,YES
1.5.1,lang/java/ipc/src/main/java/org/apache/avro/ipc/stats/IntegerHistogram.java,0.174283,0.000000,0.000000,0.531930,0.000000,0.000000,0.000000,0.000000,0.000000,0.000000,0.000000,1.064141,1.160631,1.141729,1.199252,1.116520,0.390015,0.328948,0.081921,0.000000,0.000000,NO
1.5.1,lang/java/ipc/src/main/java/org/apache/avro/ipc/stats/FloatHistogram.java,0.168058,0.000000,0.000000,0.531930,0.000000,0.000000,0.000000,0.000000,0.000000,0.000000,0.000000,1.058873,1.160631,1.325423,1.199252,1.194312,0.390015,0.328948,0.081921,0.000000,0.000000,NO
1.5.1,lang/java/ipc/src/main/java/org/apache/avro/ipc/stats/StaticServlet.java,0.118263,0.000000,0.000000,0.000000,0.000000,0.000000,0.000000,0.000000,0.000000,0.000000,0.000000,0.482024,0.863787,1.206729,0.540238,0.582552,0.390015,0.328948,0.081921,0.000000,0.000000,NO
1.5.1,lang/java/ipc/src/main/java/org/apache/avro/ipc/HttpServer.java,0.410810,0.000000,0.000000,1.063860,0.000000,0.000000,0.000000,0.000000,0.000000,0.000000,0.000000,1.047020,1.160631,1.310587,1.116875,0.892792,0.496382,0.328948,0.122882,0.000000,0.000000,NO
1.5.1,lang/java/ipc/src/main/java/org/apache/avro/ipc/LocalTransceiver.java,0.168058,0.000000,0.000000,0.000000,0.000000,0.000000,0.000000,0.000000,0.000000,0.000000,0.000000,1.414465,1.160631,1.180352,1.450214,1.479169,0.319103,0.000000,0.000000,0.000000,0.000000,NO
1.5.1,lang/java/ipc/src/main/java/org/apache/avro/ipc/ResponderServlet.java,0.186732,0.000000,0.000000,0.000000,0.000000,0.000000,0.000000,0.000000,0.000000,0.000000,0.000000,1.010144,1.160631,1.896641,1.116875,1.242358,0.319103,0.328948,0.040961,0.000000,0.000000,NO
1.5.1,lang/java/ipc/src/main/java/org/apache/avro/ipc/trace/TraceNode.java,0.404585,0.000000,0.000000,0.000000,0.000000,0.000000,0.000000,0.000000,0.000000,0.000000,0.000000,0.480707,0.863787,1.203432,0.524912,0.572335,1.028220,0.657895,0.081921,0.000000,0.000000,NO
1.5.1,lang/java/ipc/src/main/java/org/apache/avro/ipc/trace/SpanStorage.java,0.068468,0.000000,0.000000,0.531930,0.000000,0.000000,0.000000,0.000000,0.000000,0.000000,0.000000,1.472413,1.160631,1.005308,1.450214,1.276495,0.691390,0.000000,0.000000,0.000000,0.000000,NO
1.5.1,lang/java/ipc/src/main/java/org/apache/avro/ipc/trace/StaticServlet.java,0.136937,0.000000,0.000000,0.000000,0.000000,0.000000,0.000000,0.000000,0.000000,0.000000,0.000000,0.458318,0.863787,1.721072,0.490429,0.548635,0.390015,0.328948,0.122882,0.000000,0.000000,NO
1.5.1,lang/java/tools/src/main/java/org/apache/avro/tool/DataFileGetSchemaTool.java,0.186732,0.000000,0.000000,0.000000,0.000000,0.000000,0.000000,0.000000,0.000000,0.000000,0.000000,1.427635,1.160631,0.893507,1.450214,1.316646,0.319103,0.328948,0.040961,0.000000,0.000000,NO
1.5.1,lang/java/tools/src/main/java/org/apache/avro/tool/ToTextTool.java,0.348566,0.098250,0.974352,0.000000,1.265598,0.068440,0.050707,0.087851,0.000000,0.000000,0.000000,0.530754,0.863787,0.996540,0.616868,0.609328,0.319103,0.328948,0.122882,0.000000,0.000000,NO
1.5.1,lang/java/tools/src/main/java/org/apache/avro/tool/Tool.java,0.056019,0.000000,0.000000,0.000000,0.000000,0.000000,0.000000,0.000000,0.000000,0.000000,0.000000,1.518509,1.160631,0.877275,1.450214,1.423159,0.673662,0.000000,0.000000,0.000000,0.000000,NO
1.5.1,lang/java/tools/src/main/java/org/apache/avro/tool/DataFileReadTool.java,0.304995,0.000000,0.000000,0.000000,0.000000,0.000000,0.000000,0.000000,0.000000,0.000000,0.000000,1.111554,1.160631,1.192598,0.942543,0.944997,0.372287,0.328948,0.081921,0.000000,0.000000,NO
1.5.1,lang/java/tools/src/main/java/org/apache/avro/tool/RpcSendTool.java,0.529073,0.000000,0.000000,0.000000,0.000000,0.000000,0.000000,0.000000,0.000000,0.000000,0.000000,1.190574,1.160631,1.277380,0.940627,0.941104,0.354559,0.657895,0.163843,0.000000,0.000000,NO
1.5.1,lang/java/tools/src/main/java/org/apache/avro/tool/SpecificCompilerTool.java,0.230302,0.000000,0.000000,0.000000,0.000000,0.000000,0.000000,0.000000,0.000000,0.000000,0.000000,0.111946,0.195221,0.420377,0.187742,0.207747,0.372287,0.657895,0.122882,0.000000,0.000000,NO
1.5.1,lang/java/compiler/src/main/java/org/apache/avro/compiler/specific/SchemaTask.java,0.056019,0.000000,0.000000,0.000000,0.000000,0.000000,0.000000,0.000000,0.000000,0.000000,0.000000,1.509290,1.160631,1.259482,1.450214,1.561252,0.319103,0.000000,0.000000,0.000000,0.000000,NO
1.5.1,lang/java/maven-plugin/src/main/java/org/apache/avro/mojo/ProtocolMojo.java,0.130712,0.032750,0.974352,0.000000,1.265598,0.022813,0.016902,0.029284,0.000000,0.000000,0.000000,0.605823,0.863787,1.137490,0.272035,0.285212,0.655934,0.000000,0.000000,0.000000,0.000000,NO
1.5.1,lang/java/maven-plugin/src/main/java/org/apache/avro/mojo/AbstractAvroMojo.java,0.429483,0.000000,0.000000,0.000000,0.000000,0.000000,0.000000,0.000000,0.000000,0.000000,0.000000,0.425393,0.863787,3.194864,0.272035,0.304321,1.010492,0.657895,0.286725,0.000000,0.000000,NO
1.5.1,lang/java/maven-plugin/src/main/java/org/apache/avro/mojo/SchemaMojo.java,0.130712,0.032750,0.974352,0.000000,1.265598,0.022813,0.016902,0.029284,0.000000,0.000000,0.000000,0.605823,0.863787,1.137490,0.272035,0.285212,0.655934,0.000000,0.000000,0.000000,0.000000,NO
1.5.1,lang/java/maven-plugin/src/main/java/org/apache/avro/mojo/IDLProtocolMojo.java,0.199180,0.032750,0.974352,0.000000,1.265598,0.022813,0.016902,0.029284,0.000000,0.000000,0.000000,0.605823,0.863787,1.137490,0.272035,0.284400,0.655934,0.328948,0.040961,0.000000,0.000000,NO
1.5.2,lang/java/mapred/src/main/java/org/apache/avro/mapred/AvroAsTextRecordReader.java,0.410810,0.000000,0.000000,0.531930,0.000000,0.000000,0.000000,0.000000,0.000000,0.000000,0.000000,0.541290,0.863787,0.580756,0.954037,0.723892,0.319103,0.657895,0.163843,0.000000,0.000000,NO
1.5.2,lang/java/mapred/src/main/java/org/apache/avro/mapred/AvroTextOutputFormat.java,0.585092,1.097126,0.487176,0.000000,1.265598,1.528495,2.264904,3.924004,1.393922,2.377094,3.945104,0.007902,0.016046,0.059347,0.141765,0.158590,0.336831,0.986843,0.245764,0.000000,0.000000,NO
1.5.2,lang/java/mapred/src/main/java/org/apache/avro/mapred/SequenceFileInputFormat.java,0.118263,0.000000,0.000000,0.000000,0.000000,0.000000,0.000000,0.000000,0.000000,0.000000,0.000000,0.462269,0.863787,1.157273,0.954037,0.955481,0.319103,0.000000,0.000000,0.000000,0.000000,NO
1.5.2,lang/java/mapred/src/main/java/org/apache/avro/mapred/AvroValue.java,0.031122,0.000000,0.000000,0.000000,0.000000,0.000000,0.000000,0.000000,0.000000,0.000000,0.000000,1.459243,1.160631,1.217719,1.637956,1.656144,0.354559,0.000000,0.000000,0.000000,0.000000,NO
1.5.2,lang/java/mapred/src/main/java/org/apache/avro/mapred/AvroKey.java,0.031122,0.000000,0.000000,0.000000,0.000000,0.000000,0.000000,0.000000,0.000000,0.000000,0.000000,1.459243,1.160631,1.217719,1.637956,1.656144,0.354559,0.000000,0.000000,0.000000,0.000000,NO
1.5.2,lang/java/mapred/src/main/java/org/apache/avro/mapred/AvroCollector.java,0.037346,0.000000,0.000000,0.000000,0.000000,0.000000,0.000000,0.000000,0.000000,0.000000,0.000000,1.453975,1.160631,1.364988,1.637956,1.669122,0.319103,0.000000,0.000000,0.000000,0.000000,NO
1.5.2,lang/java/mapred/src/main/java/org/apache/avro/mapred/AvroAsTextInputFormat.java,0.180507,0.000000,0.000000,0.000000,0.000000,0.000000,0.000000,0.000000,0.000000,0.000000,0.000000,0.455684,0.863787,1.140787,0.954037,0.782107,0.460926,0.657895,0.081921,0.000000,0.000000,NO
1.5.2,lang/java/mapred/src/main/java/org/apache/avro/mapred/AvroUtf8InputFormat.java,0.466829,0.000000,0.000000,0.000000,0.000000,0.000000,0.000000,0.000000,0.000000,0.000000,0.000000,0.437246,0.863787,1.094628,0.810357,0.881476,0.372287,0.328948,0.040961,0.000000,0.000000,NO
1.5.2,lang/java/mapred/src/main/java/org/apache/avro/mapred/tether/TetherOutputFormat.java,0.298771,0.000000,0.000000,0.000000,0.000000,0.000000,0.000000,0.000000,0.000000,0.000000,0.000000,0.497828,0.863787,1.246294,0.954037,1.014101,0.336831,0.328948,0.040961,0.000000,0.000000,NO
1.5.2,lang/java/mapred/src/main/java/org/apache/avro/mapred/tether/TetherJob.java,0.311219,0.000000,0.000000,0.531930,0.000000,0.000000,0.000000,0.000000,0.000000,0.000000,0.000000,0.530754,0.863787,0.996540,0.810357,0.761529,0.478654,0.328948,0.081921,0.000000,0.000000,NO
1.5.2,lang/java/mapred/src/main/java/org/apache/avro/mapred/HadoopCombiner.java,0.199180,0.000000,0.000000,0.000000,0.000000,0.000000,0.000000,0.000000,0.000000,0.000000,0.000000,0.474122,0.863787,1.780420,0.741391,0.829382,0.372287,0.000000,0.000000,0.000000,0.000000,NO
1.5.2,lang/java/mapred/src/main/java/org/apache/avro/mapred/SequenceFileRecordReader.java,0.068468,0.000000,0.000000,0.000000,0.000000,0.000000,0.000000,0.000000,0.000000,0.000000,0.000000,1.467145,1.160631,1.224313,1.637956,1.544730,0.319103,0.000000,0.000000,0.000000,0.000000,NO
1.5.2,lang/java/avro/src/main/java/org/apache/avro/specific/FixedSize.java,0.074693,0.000000,0.000000,0.531930,0.000000,0.000000,0.000000,0.000000,0.000000,0.000000,0.000000,1.435537,1.160631,1.197937,1.637956,1.782697,0.390015,0.000000,0.000000,0.000000,0.000000,NO
1.5.2,lang/java/avro/src/main/java/org/apache/avro/specific/SpecificRecord.java,0.024898,0.000000,0.000000,0.531930,0.000000,0.000000,0.000000,0.000000,0.000000,0.000000,0.000000,1.457926,1.160631,1.216620,1.637956,1.775604,0.336831,0.000000,0.000000,0.000000,0.000000,NO
1.5.2,lang/java/avro/src/main/java/org/apache/avro/specific/SpecificFixed.java,0.043571,0.000000,0.000000,0.000000,0.000000,0.000000,0.000000,0.000000,0.000000,0.000000,0.000000,1.455292,1.160631,1.092980,1.637956,1.786986,0.319103,0.000000,0.000000,0.000000,0.000000,NO
1.5.2,lang/java/avro/src/main/java/org/apache/avro/UnresolvedUnionException.java,0.099590,0.000000,0.000000,0.531930,0.000000,0.000000,0.000000,0.000000,0.000000,0.000000,0.000000,1.053605,1.160631,1.318829,1.386994,1.098009,0.319103,0.000000,0.000000,0.000000,0.000000,NO
1.5.2,lang/java/avro/src/main/java/org/apache/avro/reflect/Nullable.java,0.062244,0.000000,0.000000,1.063860,0.000000,0.000000,0.000000,0.000000,0.000000,0.000000,0.000000,1.453975,1.160631,0.992719,1.637956,1.688296,0.372287,0.000000,0.000000,0.000000,0.000000,NO
1.5.2,lang/java/avro/src/main/java/org/apache/avro/reflect/Stringable.java,0.062244,0.000000,0.000000,1.063860,0.000000,0.000000,0.000000,0.000000,0.000000,0.000000,0.000000,1.447390,1.160631,1.087045,1.637956,1.735586,0.390015,0.000000,0.000000,0.000000,0.000000,NO
1.5.2,lang/java/avro/src/main/java/org/apache/avro/reflect/Union.java,0.074693,0.000000,0.000000,0.531930,0.000000,0.000000,0.000000,0.000000,0.000000,0.000000,0.000000,1.453975,1.160631,0.992719,1.637956,1.703054,0.443198,0.000000,0.000000,0.000000,0.000000,NO
1.5.2,lang/java/avro/src/main/java/org/apache/avro/io/Decoder.java,0.186732,0.000000,0.000000,0.000000,0.000000,0.000000,0.000000,0.000000,0.000000,0.000000,0.000000,1.647575,1.160631,0.773370,1.637956,1.707553,3.882418,0.000000,0.000000,0.000000,0.000000,NO
1.5.2,lang/java/avro/src/main/java/org/apache/avro/io/DirectBinaryDecoder.java,0.958556,0.000000,0.000000,0.531930,0.000000,0.000000,0.000000,0.000000,0.000000,0.000000,0.000000,1.332811,1.160631,0.834160,1.494276,1.424899,0.478654,0.986843,0.614410,0.000000,0.000000,NO
1.5.2,lang/java/avro/src/main/java/org/apache/avro/io/ValidatingEncoder.java,0.946107,0.000000,0.000000,1.063860,0.000000,0.000000,0.000000,0.000000,0.000000,0.000000,0.000000,1.323592,1.160631,0.764667,1.490444,1.484913,0.620478,0.328948,0.081921,0.000000,0.000000,NO
1.5.2,lang/java/avro/src/main/java/org/apache/avro/io/ValidatingDecoder.java,1.170185,0.000000,0.000000,0.531930,0.000000,0.000000,0.000000,0.000000,0.000000,0.000000,0.000000,1.272228,1.160631,0.734994,1.490444,1.564094,0.514110,0.657895,0.450567,0.000000,0.000000,NO
1.5.2,lang/java/avro/src/main/java/org/apache/avro/io/DatumReader.java,0.043571,0.000000,0.000000,0.000000,0.000000,0.000000,0.000000,0.000000,0.000000,0.000000,0.000000,1.356517,1.160631,1.273495,1.637956,1.808339,0.425470,0.000000,0.000000,0.000000,0.000000,NO
1.5.2,lang/java/avro/src/main/java/org/apache/avro/io/DatumWriter.java,0.043571,0.000000,0.000000,0.000000,0.000000,0.000000,0.000000,0.000000,0.000000,0.000000,0.000000,1.436854,1.160631,1.348915,1.637956,1.822009,0.407743,0.000000,0.000000,0.000000,0.000000,NO
1.5.2,lang/java/avro/src/main/java/org/apache/avro/io/ParsingDecoder.java,0.304995,0.000000,0.000000,0.000000,0.000000,0.000000,0.000000,0.000000,0.000000,0.000000,0.000000,1.162917,1.160631,1.746789,1.438719,1.546047,0.336831,3.947372,0.532488,0.000000,0.000000,NO
1.5.2,lang/java/avro/src/main/java/org/apache/avro/io/ResolvingDecoder.java,0.896312,0.000000,0.000000,1.595789,0.000000,0.000000,0.000000,0.000000,0.000000,0.000000,0.000000,1.330177,1.160631,0.555007,1.490444,1.427481,1.879161,1.973686,1.024016,0.000000,0.000000,NO
1.5.2,lang/java/avro/src/main/java/org/apache/avro/SchemaParseException.java,0.031122,0.000000,0.000000,0.000000,0.000000,0.000000,0.000000,0.000000,0.000000,0.000000,0.000000,1.377589,1.160631,1.478031,1.637956,1.823869,0.319103,0.000000,0.000000,0.000000,0.000000,NO
1.5.2,lang/java/avro/src/main/java/org/apache/avro/generic/GenericRecord.java,0.031122,0.000000,0.000000,0.531930,0.000000,0.000000,0.000000,0.000000,0.000000,0.000000,0.000000,1.434220,1.160631,1.196838,1.637956,1.688034,0.372287,0.000000,0.000000,0.000000,0.000000,NO
1.5.2,lang/java/avro/src/main/java/org/apache/avro/generic/GenericContainer.java,0.031122,0.000000,0.000000,0.000000,0.000000,0.000000,0.000000,0.000000,0.000000,0.000000,0.000000,1.405246,1.160631,1.507704,1.637956,1.804564,0.336831,0.000000,0.000000,0.000000,0.000000,NO
1.5.2,lang/java/avro/src/main/java/org/apache/avro/generic/GenericFixed.java,0.024898,0.000000,0.000000,0.000000,0.000000,0.000000,0.000000,0.000000,0.000000,0.000000,0.000000,1.426318,1.160631,1.339024,1.637956,1.787178,0.336831,0.000000,0.000000,0.000000,0.000000,NO
1.5.2,lang/java/avro/src/main/java/org/apache/avro/generic/GenericDatumWriter.java,0.846517,0.000000,0.000000,2.127719,0.000000,0.000000,0.000000,0.000000,0.000000,0.000000,0.000000,1.718694,1.160631,0.496463,1.637956,1.654970,0.797757,0.657895,0.819213,0.000000,0.000000,YES
1.5.2,lang/java/avro/src/main/java/org/apache/avro/generic/GenericArray.java,0.037346,0.000000,0.000000,0.000000,0.000000,0.000000,0.000000,0.000000,0.000000,0.000000,0.000000,1.459243,1.160631,1.095947,1.637956,1.682837,0.390015,0.000000,0.000000,0.000000,0.000000,NO
1.5.2,lang/java/avro/src/main/java/org/apache/avro/generic/IndexedRecord.java,0.031122,0.000000,0.000000,0.531930,0.000000,0.000000,0.000000,0.000000,0.000000,0.000000,0.000000,1.482949,1.160631,1.113751,1.637956,1.636641,0.425470,0.000000,0.000000,0.000000,0.000000,NO
1.5.2,lang/java/avro/src/main/java/org/apache/avro/file/SnappyCodec.java,0.311219,0.417563,0.487176,0.531930,1.265598,0.239540,0.354948,0.614956,0.093622,0.159656,0.264970,0.042144,0.040114,0.105506,0.245214,0.190873,0.319103,0.328948,0.122882,0.000000,0.000000,NO
1.5.2,lang/java/avro/src/main/java/org/apache/avro/file/SeekableFileInput.java,0.080917,0.000000,0.000000,0.000000,0.000000,0.000000,0.000000,0.000000,0.000000,0.000000,0.000000,1.378906,1.160631,1.479444,1.637956,1.812089,0.319103,0.000000,0.000000,0.000000,0.000000,NO
1.5.2,lang/java/avro/src/main/java/org/apache/avro/file/Codec.java,0.099590,0.000000,0.000000,0.000000,0.000000,0.000000,0.000000,0.000000,0.000000,0.000000,0.000000,1.456609,1.160631,0.994517,1.637956,1.556954,0.567294,0.000000,0.000000,0.000000,0.000000,NO
1.5.2,lang/java/avro/src/main/java/org/apache/avro/file/FileReader.java,0.074693,0.000000,0.000000,0.000000,0.000000,0.000000,0.000000,0.000000,0.000000,0.000000,0.000000,0.438563,0.863787,1.646888,0.630278,0.705082,0.514110,0.000000,0.000000,0.000000,0.000000,NO
1.5.2,lang/java/avro/src/main/java/org/apache/avro/file/LengthLimitedInputStream.java,0.329893,0.000000,0.000000,0.000000,0.000000,0.000000,0.000000,0.000000,0.000000,0.000000,0.000000,0.446465,0.863787,1.676562,1.086223,1.215141,0.390015,0.657895,0.204803,0.000000,0.000000,NO
1.5.2,lang/java/avro/src/main/java/org/apache/avro/file/SeekableInput.java,0.056019,0.000000,0.000000,0.531930,0.000000,0.000000,0.000000,0.000000,0.000000,0.000000,0.000000,1.389442,1.160631,1.304405,1.637956,1.772734,0.390015,0.000000,0.000000,0.000000,0.000000,NO
1.5.2,lang/java/avro/src/main/java/org/apache/avro/AvroRuntimeException.java,0.049795,0.000000,0.000000,0.000000,0.000000,0.000000,0.000000,0.000000,0.000000,0.000000,0.000000,1.389442,1.160631,1.304405,1.637956,1.804996,0.319103,0.000000,0.000000,0.000000,0.000000,NO
1.5.2,lang/java/avro/src/main/java/org/apache/avro/AvroTypeException.java,0.043571,0.000000,0.000000,0.000000,0.000000,0.000000,0.000000,0.000000,0.000000,0.000000,0.000000,1.418416,1.160631,1.331605,1.637956,1.809275,0.319103,0.000000,0.000000,0.000000,0.000000,NO
1.5.2,lang/java/ipc/src/main/java/org/apache/avro/ipc/Server.java,0.043571,0.000000,0.000000,0.000000,0.000000,0.000000,0.000000,0.000000,0.000000,0.000000,0.000000,1.456609,1.160631,1.215521,1.637956,1.727062,0.390015,0.000000,0.000000,0.000000,0.000000,NO
1.5.2,lang/java/ipc/src/main/java/org/apache/avro/ipc/reflect/ReflectRequestor.java,0.298771,0.032750,0.487176,0.531930,1.265598,0.022813,0.033805,0.058567,0.000000,0.000000,0.000000,1.696304,1.160631,0.749405,1.637956,1.643376,0.372287,0.000000,0.000000,0.000000,0.000000,NO
1.5.2,lang/java/ipc/src/main/java/org/apache/avro/ipc/CallFuture.java,0.510400,1.326376,0.487176,0.000000,1.265598,1.847882,2.738168,4.743945,1.685190,2.873801,4.769454,0.021072,0.042788,0.158260,0.107281,0.120014,1.134588,0.657895,0.245764,0.000000,0.000000,NO
1.5.2,lang/java/ipc/src/main/java/org/apache/avro/ipc/Callback.java,0.031122,0.245625,0.487176,0.000000,1.265598,0.193914,0.287339,0.497821,0.041610,0.070958,0.117764,1.477681,1.160631,1.109795,1.637956,1.375154,0.549566,0.000000,0.000000,0.000000,0.000000,NO
1.5.2,lang/java/ipc/src/main/java/org/apache/avro/ipc/stats/IntegerHistogram.java,0.174283,0.000000,0.000000,0.531930,0.000000,0.000000,0.000000,0.000000,0.000000,0.000000,0.000000,1.064141,1.160631,1.141729,1.386994,1.326544,0.390015,0.328948,0.081921,0.000000,0.000000,NO
1.5.2,lang/java/ipc/src/main/java/org/apache/avro/ipc/stats/FloatHistogram.java,0.168058,0.000000,0.000000,0.531930,0.000000,0.000000,0.000000,0.000000,0.000000,0.000000,0.000000,1.058873,1.160631,1.325423,1.386994,1.404337,0.390015,0.328948,0.081921,0.000000,0.000000,NO
1.5.2,lang/java/ipc/src/main/java/org/apache/avro/ipc/stats/StaticServlet.java,0.118263,0.000000,0.000000,0.000000,0.000000,0.000000,0.000000,0.000000,0.000000,0.000000,0.000000,0.482024,0.863787,1.206729,0.727980,0.792576,0.390015,0.328948,0.081921,0.000000,0.000000,NO
1.5.2,lang/java/ipc/src/main/java/org/apache/avro/ipc/HttpServer.java,0.410810,0.000000,0.000000,1.063860,0.000000,0.000000,0.000000,0.000000,0.000000,0.000000,0.000000,1.047020,1.160631,1.310587,1.304617,1.102816,0.496382,0.328948,0.122882,0.000000,0.000000,NO
1.5.2,lang/java/ipc/src/main/java/org/apache/avro/ipc/LocalTransceiver.java,0.168058,0.000000,0.000000,0.000000,0.000000,0.000000,0.000000,0.000000,0.000000,0.000000,0.000000,1.414465,1.160631,1.180352,1.637956,1.689193,0.319103,0.000000,0.000000,0.000000,0.000000,NO
1.5.2,lang/java/ipc/src/main/java/org/apache/avro/ipc/ResponderServlet.java,0.186732,0.000000,0.000000,0.000000,0.000000,0.000000,0.000000,0.000000,0.000000,0.000000,0.000000,1.010144,1.160631,1.896641,1.304617,1.452382,0.319103,0.328948,0.040961,0.000000,0.000000,NO
1.5.2,lang/java/ipc/src/main/java/org/apache/avro/ipc/trace/TraceNode.java,0.404585,0.000000,0.000000,0.000000,0.000000,0.000000,0.000000,0.000000,0.000000,0.000000,0.000000,0.480707,0.863787,1.203432,0.712654,0.782359,1.028220,0.657895,0.081921,0.000000,0.000000,NO
1.5.2,lang/java/ipc/src/main/java/org/apache/avro/ipc/trace/SpanStorage.java,0.068468,0.000000,0.000000,0.531930,0.000000,0.000000,0.000000,0.000000,0.000000,0.000000,0.000000,1.472413,1.160631,1.005308,1.637956,1.486519,0.691390,0.000000,0.000000,0.000000,0.000000,NO
1.5.2,lang/java/ipc/src/main/java/org/apache/avro/ipc/trace/StaticServlet.java,0.136937,0.000000,0.000000,0.000000,0.000000,0.000000,0.000000,0.000000,0.000000,0.000000,0.000000,0.458318,0.863787,1.721072,0.678171,0.758659,0.390015,0.328948,0.122882,0.000000,0.000000,NO
1.5.2,lang/java/tools/src/main/java/org/apache/avro/tool/DataFileGetSchemaTool.java,0.186732,0.000000,0.000000,0.000000,0.000000,0.000000,0.000000,0.000000,0.000000,0.000000,0.000000,1.427635,1.160631,0.893507,1.637956,1.526670,0.319103,0.328948,0.040961,0.000000,0.000000,NO
1.5.2,lang/java/tools/src/main/java/org/apache/avro/tool/ToTextTool.java,0.348566,0.000000,0.000000,0.000000,0.000000,0.000000,0.000000,0.000000,0.000000,0.000000,0.000000,0.453050,0.863787,1.134193,0.804610,0.858245,0.319103,0.328948,0.122882,0.000000,0.000000,NO
1.5.2,lang/java/tools/src/main/java/org/apache/avro/tool/Tool.java,0.056019,0.000000,0.000000,0.000000,0.000000,0.000000,0.000000,0.000000,0.000000,0.000000,0.000000,1.518509,1.160631,0.877275,1.637956,1.633183,0.673662,0.000000,0.000000,0.000000,0.000000,NO
1.5.2,lang/java/tools/src/main/java/org/apache/avro/tool/DataFileReadTool.java,0.304995,0.000000,0.000000,0.000000,0.000000,0.000000,0.000000,0.000000,0.000000,0.000000,0.000000,1.111554,1.160631,1.192598,1.130285,1.155021,0.372287,0.328948,0.081921,0.000000,0.000000,NO
1.5.2,lang/java/tools/src/main/java/org/apache/avro/tool/RpcSendTool.java,0.529073,0.000000,0.000000,0.000000,0.000000,0.000000,0.000000,0.000000,0.000000,0.000000,0.000000,1.190574,1.160631,1.277380,1.128370,1.151128,0.354559,0.657895,0.163843,0.000000,0.000000,NO
1.5.2,lang/java/tools/src/main/java/org/apache/avro/tool/SpecificCompilerTool.java,0.230302,0.000000,0.000000,0.000000,0.000000,0.000000,0.000000,0.000000,0.000000,0.000000,0.000000,0.111946,0.195221,0.420377,0.375485,0.417772,0.372287,0.657895,0.122882,0.000000,0.000000,NO
1.5.2,lang/java/compiler/src/main/java/org/apache/avro/compiler/specific/SchemaTask.java,0.056019,0.000000,0.000000,0.000000,0.000000,0.000000,0.000000,0.000000,0.000000,0.000000,0.000000,1.509290,1.160631,1.259482,1.637956,1.771276,0.319103,0.000000,0.000000,0.000000,0.000000,NO
1.5.2,lang/java/maven-plugin/src/main/java/org/apache/avro/mojo/ProtocolMojo.java,0.130712,0.000000,0.000000,0.000000,0.000000,0.000000,0.000000,0.000000,0.000000,0.000000,0.000000,0.528120,0.863787,1.322126,0.459777,0.503385,0.655934,0.000000,0.000000,0.000000,0.000000,NO
1.5.2,lang/java/maven-plugin/src/main/java/org/apache/avro/mojo/AbstractAvroMojo.java,0.429483,0.000000,0.000000,0.000000,0.000000,0.000000,0.000000,0.000000,0.000000,0.000000,0.000000,0.425393,0.863787,3.194864,0.459777,0.514345,1.010492,0.657895,0.286725,0.000000,0.000000,NO
1.5.2,lang/java/maven-plugin/src/main/java/org/apache/avro/mojo/SchemaMojo.java,0.130712,0.000000,0.000000,0.000000,0.000000,0.000000,0.000000,0.000000,0.000000,0.000000,0.000000,0.528120,0.863787,1.322126,0.459777,0.503385,0.655934,0.000000,0.000000,0.000000,0.000000,NO
1.5.2,lang/java/maven-plugin/src/main/java/org/apache/avro/mojo/IDLProtocolMojo.java,0.199180,0.000000,0.000000,0.000000,0.000000,0.000000,0.000000,0.000000,0.000000,0.000000,0.000000,0.528120,0.863787,1.322126,0.459777,0.501038,0.655934,0.328948,0.040961,0.000000,0.000000,NO
1.5.3,lang/java/mapred/src/main/java/org/apache/avro/mapred/SequenceFileInputFormat.java,0.118263,0.000000,0.000000,0.000000,0.000000,0.000000,0.000000,0.000000,0.000000,0.000000,0.000000,0.462269,0.863787,1.157273,0.988521,0.994057,0.319103,0.000000,0.000000,0.000000,0.000000,NO
1.5.3,lang/java/mapred/src/main/java/org/apache/avro/mapred/AvroValue.java,0.031122,0.000000,0.000000,0.000000,0.000000,0.000000,0.000000,0.000000,0.000000,0.000000,0.000000,1.459243,1.160631,1.217719,1.672439,1.694720,0.354559,0.000000,0.000000,0.000000,0.000000,NO
1.5.3,lang/java/mapred/src/main/java/org/apache/avro/mapred/AvroKey.java,0.031122,0.000000,0.000000,0.000000,0.000000,0.000000,0.000000,0.000000,0.000000,0.000000,0.000000,1.459243,1.160631,1.217719,1.672439,1.694720,0.354559,0.000000,0.000000,0.000000,0.000000,NO
1.5.3,lang/java/mapred/src/main/java/org/apache/avro/mapred/AvroCollector.java,0.037346,0.000000,0.000000,0.000000,0.000000,0.000000,0.000000,0.000000,0.000000,0.000000,0.000000,1.453975,1.160631,1.364988,1.672439,1.707698,0.319103,0.000000,0.000000,0.000000,0.000000,NO
1.5.3,lang/java/mapred/src/main/java/org/apache/avro/mapred/AvroUtf8InputFormat.java,0.466829,0.000000,0.000000,0.000000,0.000000,0.000000,0.000000,0.000000,0.000000,0.000000,0.000000,0.437246,0.863787,1.094628,0.844840,0.920052,0.372287,0.328948,0.040961,0.000000,0.000000,NO
1.5.3,lang/java/mapred/src/main/java/org/apache/avro/mapred/tether/TetherOutputFormat.java,0.298771,0.000000,0.000000,0.000000,0.000000,0.000000,0.000000,0.000000,0.000000,0.000000,0.000000,0.497828,0.863787,1.246294,0.988521,1.052677,0.336831,0.328948,0.040961,0.000000,0.000000,NO
1.5.3,lang/java/mapred/src/main/java/org/apache/avro/mapred/tether/TetherJob.java,0.311219,0.000000,0.000000,0.531930,0.000000,0.000000,0.000000,0.000000,0.000000,0.000000,0.000000,0.530754,0.863787,0.996540,0.844840,0.800105,0.478654,0.328948,0.081921,0.000000,0.000000,YES
1.5.3,lang/java/mapred/src/main/java/org/apache/avro/mapred/HadoopCombiner.java,0.199180,0.000000,0.000000,0.000000,0.000000,0.000000,0.000000,0.000000,0.000000,0.000000,0.000000,0.474122,0.863787,1.780420,0.775874,0.867958,0.372287,0.000000,0.000000,0.000000,0.000000,NO
1.5.3,lang/java/mapred/src/main/java/org/apache/avro/mapred/SequenceFileRecordReader.java,0.068468,0.000000,0.000000,0.000000,0.000000,0.000000,0.000000,0.000000,0.000000,0.000000,0.000000,1.467145,1.160631,1.224313,1.672439,1.583305,0.319103,0.000000,0.000000,0.000000,0.000000,NO
1.5.3,lang/java/avro/src/main/java/org/apache/avro/specific/FixedSize.java,0.074693,0.000000,0.000000,0.531930,0.000000,0.000000,0.000000,0.000000,0.000000,0.000000,0.000000,1.435537,1.160631,1.197937,1.672439,1.821273,0.390015,0.000000,0.000000,0.000000,0.000000,NO
1.5.3,lang/java/avro/src/main/java/org/apache/avro/specific/SpecificRecord.java,0.024898,0.000000,0.000000,0.531930,0.000000,0.000000,0.000000,0.000000,0.000000,0.000000,0.000000,1.457926,1.160631,1.216620,1.672439,1.814180,0.336831,0.000000,0.000000,0.000000,0.000000,NO
1.5.3,lang/java/avro/src/main/java/org/apache/avro/specific/SpecificFixed.java,0.043571,0.000000,0.000000,0.000000,0.000000,0.000000,0.000000,0.000000,0.000000,0.000000,0.000000,1.455292,1.160631,1.092980,1.672439,1.825562,0.319103,0.000000,0.000000,0.000000,0.000000,NO
1.5.3,lang/java/avro/src/main/java/org/apache/avro/UnresolvedUnionException.java,0.099590,0.000000,0.000000,0.531930,0.000000,0.000000,0.000000,0.000000,0.000000,0.000000,0.000000,1.053605,1.160631,1.318829,1.421477,1.136585,0.319103,0.000000,0.000000,0.000000,0.000000,NO
1.5.3,lang/java/avro/src/main/java/org/apache/avro/reflect/Nullable.java,0.062244,0.000000,0.000000,1.063860,0.000000,0.000000,0.000000,0.000000,0.000000,0.000000,0.000000,1.453975,1.160631,0.992719,1.672439,1.726872,0.372287,0.000000,0.000000,0.000000,0.000000,NO
1.5.3,lang/java/avro/src/main/java/org/apache/avro/reflect/Stringable.java,0.062244,0.000000,0.000000,1.063860,0.000000,0.000000,0.000000,0.000000,0.000000,0.000000,0.000000,1.447390,1.160631,1.087045,1.672439,1.774161,0.390015,0.000000,0.000000,0.000000,0.000000,NO
1.5.3,lang/java/avro/src/main/java/org/apache/avro/reflect/Union.java,0.074693,0.000000,0.000000,0.531930,0.000000,0.000000,0.000000,0.000000,0.000000,0.000000,0.000000,1.453975,1.160631,0.992719,1.672439,1.741630,0.443198,0.000000,0.000000,0.000000,0.000000,NO
1.5.3,lang/java/avro/src/main/java/org/apache/avro/io/Decoder.java,0.186732,0.000000,0.000000,0.000000,0.000000,0.000000,0.000000,0.000000,0.000000,0.000000,0.000000,1.647575,1.160631,0.773370,1.672439,1.746128,3.882418,0.000000,0.000000,0.000000,0.000000,NO
1.5.3,lang/java/avro/src/main/java/org/apache/avro/io/DirectBinaryDecoder.java,0.958556,0.000000,0.000000,0.531930,0.000000,0.000000,0.000000,0.000000,0.000000,0.000000,0.000000,1.332811,1.160631,0.834160,1.528759,1.463475,0.478654,0.986843,0.614410,0.000000,0.000000,NO
1.5.3,lang/java/avro/src/main/java/org/apache/avro/io/ValidatingEncoder.java,0.946107,0.000000,0.000000,1.063860,0.000000,0.000000,0.000000,0.000000,0.000000,0.000000,0.000000,1.323592,1.160631,0.764667,1.524927,1.523489,0.620478,0.328948,0.081921,0.000000,0.000000,NO
1.5.3,lang/java/avro/src/main/java/org/apache/avro/io/ValidatingDecoder.java,1.170185,0.000000,0.000000,0.531930,0.000000,0.000000,0.000000,0.000000,0.000000,0.000000,0.000000,1.272228,1.160631,0.734994,1.524927,1.602670,0.514110,0.657895,0.450567,0.000000,0.000000,NO
1.5.3,lang/java/avro/src/main/java/org/apache/avro/io/DatumReader.java,0.043571,0.000000,0.000000,0.000000,0.000000,0.000000,0.000000,0.000000,0.000000,0.000000,0.000000,1.356517,1.160631,1.273495,1.672439,1.846914,0.425470,0.000000,0.000000,0.000000,0.000000,NO
1.5.3,lang/java/avro/src/main/java/org/apache/avro/io/DatumWriter.java,0.043571,0.000000,0.000000,0.000000,0.000000,0.000000,0.000000,0.000000,0.000000,0.000000,0.000000,1.436854,1.160631,1.348915,1.672439,1.860585,0.407743,0.000000,0.000000,0.000000,0.000000,NO
1.5.3,lang/java/avro/src/main/java/org/apache/avro/io/ParsingDecoder.java,0.304995,0.000000,0.000000,0.000000,0.000000,0.000000,0.000000,0.000000,0.000000,0.000000,0.000000,1.162917,1.160631,1.746789,1.473202,1.584623,0.336831,3.947372,0.532488,0.000000,0.000000,NO
1.5.3,lang/java/avro/src/main/java/org/apache/avro/io/ResolvingDecoder.java,0.896312,0.000000,0.000000,1.595789,0.000000,0.000000,0.000000,0.000000,0.000000,0.000000,0.000000,1.330177,1.160631,0.555007,1.524927,1.466057,1.879161,1.973686,1.024016,0.000000,0.000000,NO
1.5.3,lang/java/avro/src/main/java/org/apache/avro/SchemaParseException.java,0.031122,0.000000,0.000000,0.000000,0.000000,0.000000,0.000000,0.000000,0.000000,0.000000,0.000000,1.377589,1.160631,1.478031,1.672439,1.862445,0.319103,0.000000,0.000000,0.000000,0.000000,NO
1.5.3,lang/java/avro/src/main/java/org/apache/avro/generic/GenericRecord.java,0.031122,0.000000,0.000000,0.531930,0.000000,0.000000,0.000000,0.000000,0.000000,0.000000,0.000000,1.434220,1.160631,1.196838,1.672439,1.726610,0.372287,0.000000,0.000000,0.000000,0.000000,NO
1.5.3,lang/java/avro/src/main/java/org/apache/avro/generic/GenericContainer.java,0.031122,0.000000,0.000000,0.000000,0.000000,0.000000,0.000000,0.000000,0.000000,0.000000,0.000000,1.405246,1.160631,1.507704,1.672439,1.843140,0.336831,0.000000,0.000000,0.000000,0.000000,NO
1.5.3,lang/java/avro/src/main/java/org/apache/avro/generic/GenericFixed.java,0.024898,0.000000,0.000000,0.000000,0.000000,0.000000,0.000000,0.000000,0.000000,0.000000,0.000000,1.426318,1.160631,1.339024,1.672439,1.825754,0.336831,0.000000,0.000000,0.000000,0.000000,NO
1.5.3,lang/java/avro/src/main/java/org/apache/avro/generic/GenericDatumWriter.java,0.846517,0.000000,0.000000,2.127719,0.000000,0.000000,0.000000,0.000000,0.000000,0.000000,0.000000,1.718694,1.160631,0.496463,1.672439,1.693546,0.797757,0.657895,0.819213,0.000000,0.000000,YES
1.5.3,lang/java/avro/src/main/java/org/apache/avro/generic/GenericArray.java,0.037346,0.000000,0.000000,0.000000,0.000000,0.000000,0.000000,0.000000,0.000000,0.000000,0.000000,1.459243,1.160631,1.095947,1.672439,1.721413,0.390015,0.000000,0.000000,0.000000,0.000000,NO
1.5.3,lang/java/avro/src/main/java/org/apache/avro/generic/IndexedRecord.java,0.031122,0.000000,0.000000,0.531930,0.000000,0.000000,0.000000,0.000000,0.000000,0.000000,0.000000,1.482949,1.160631,1.113751,1.672439,1.675217,0.425470,0.000000,0.000000,0.000000,0.000000,NO
1.5.3,lang/java/avro/src/main/java/org/apache/avro/file/SeekableFileInput.java,0.080917,0.000000,0.000000,0.000000,0.000000,0.000000,0.000000,0.000000,0.000000,0.000000,0.000000,1.378906,1.160631,1.479444,1.672439,1.850665,0.319103,0.000000,0.000000,0.000000,0.000000,NO
1.5.3,lang/java/avro/src/main/java/org/apache/avro/file/Codec.java,0.099590,0.000000,0.000000,0.000000,0.000000,0.000000,0.000000,0.000000,0.000000,0.000000,0.000000,1.456609,1.160631,0.994517,1.672439,1.595530,0.567294,0.000000,0.000000,0.000000,0.000000,NO
1.5.3,lang/java/avro/src/main/java/org/apache/avro/file/FileReader.java,0.074693,0.000000,0.000000,0.000000,0.000000,0.000000,0.000000,0.000000,0.000000,0.000000,0.000000,0.438563,0.863787,1.646888,0.664761,0.743658,0.514110,0.000000,0.000000,0.000000,0.000000,NO
1.5.3,lang/java/avro/src/main/java/org/apache/avro/file/LengthLimitedInputStream.java,0.329893,0.000000,0.000000,0.000000,0.000000,0.000000,0.000000,0.000000,0.000000,0.000000,0.000000,0.446465,0.863787,1.676562,1.120707,1.253717,0.390015,0.657895,0.204803,0.000000,0.000000,NO
1.5.3,lang/java/avro/src/main/java/org/apache/avro/file/SeekableInput.java,0.056019,0.000000,0.000000,0.531930,0.000000,0.000000,0.000000,0.000000,0.000000,0.000000,0.000000,1.389442,1.160631,1.304405,1.672439,1.811310,0.390015,0.000000,0.000000,0.000000,0.000000,NO
1.5.3,lang/java/avro/src/main/java/org/apache/avro/AvroRuntimeException.java,0.049795,0.000000,0.000000,0.000000,0.000000,0.000000,0.000000,0.000000,0.000000,0.000000,0.000000,1.389442,1.160631,1.304405,1.672439,1.843571,0.319103,0.000000,0.000000,0.000000,0.000000,NO
1.5.3,lang/java/avro/src/main/java/org/apache/avro/AvroTypeException.java,0.043571,0.000000,0.000000,0.000000,0.000000,0.000000,0.000000,0.000000,0.000000,0.000000,0.000000,1.418416,1.160631,1.331605,1.672439,1.847851,0.319103,0.000000,0.000000,0.000000,0.000000,NO
1.5.3,lang/java/ipc/src/main/java/org/apache/avro/ipc/Server.java,0.043571,0.000000,0.000000,0.000000,0.000000,0.000000,0.000000,0.000000,0.000000,0.000000,0.000000,1.456609,1.160631,1.215521,1.672439,1.765638,0.390015,0.000000,0.000000,0.000000,0.000000,NO
1.5.3,lang/java/ipc/src/main/java/org/apache/avro/ipc/reflect/ReflectRequestor.java,0.298771,0.000000,0.000000,0.531930,0.000000,0.000000,0.000000,0.000000,0.000000,0.000000,0.000000,1.696304,1.160631,0.749405,1.672439,1.681952,0.372287,0.000000,0.000000,0.000000,0.000000,NO
1.5.3,lang/java/ipc/src/main/java/org/apache/avro/ipc/CallFuture.java,0.510400,0.000000,0.000000,0.000000,0.000000,0.000000,0.000000,0.000000,0.000000,0.000000,0.000000,0.021072,0.042788,0.158260,0.141765,0.158590,1.134588,0.657895,0.245764,0.000000,0.000000,NO
1.5.3,lang/java/ipc/src/main/java/org/apache/avro/ipc/Callback.java,0.031122,0.000000,0.000000,0.000000,0.000000,0.000000,0.000000,0.000000,0.000000,0.000000,0.000000,1.477681,1.160631,1.109795,1.672439,1.413730,0.549566,0.000000,0.000000,0.000000,0.000000,NO
1.5.3,lang/java/ipc/src/main/java/org/apache/avro/ipc/stats/IntegerHistogram.java,0.174283,0.000000,0.000000,0.531930,0.000000,0.000000,0.000000,0.000000,0.000000,0.000000,0.000000,1.064141,1.160631,1.141729,1.421477,1.365120,0.390015,0.328948,0.081921,0.000000,0.000000,NO
1.5.3,lang/java/ipc/src/main/java/org/apache/avro/ipc/stats/FloatHistogram.java,0.168058,0.000000,0.000000,0.531930,0.000000,0.000000,0.000000,0.000000,0.000000,0.000000,0.000000,1.058873,1.160631,1.325423,1.421477,1.442913,0.390015,0.328948,0.081921,0.000000,0.000000,NO
1.5.3,lang/java/ipc/src/main/java/org/apache/avro/ipc/stats/StaticServlet.java,0.118263,0.000000,0.000000,0.000000,0.000000,0.000000,0.000000,0.000000,0.000000,0.000000,0.000000,0.482024,0.863787,1.206729,0.762464,0.831152,0.390015,0.328948,0.081921,0.000000,0.000000,NO
1.5.3,lang/java/ipc/src/main/java/org/apache/avro/ipc/HttpServer.java,0.410810,0.000000,0.000000,1.063860,0.000000,0.000000,0.000000,0.000000,0.000000,0.000000,0.000000,1.047020,1.160631,1.310587,1.339101,1.141392,0.496382,0.328948,0.122882,0.000000,0.000000,NO
1.5.3,lang/java/ipc/src/main/java/org/apache/avro/ipc/LocalTransceiver.java,0.168058,0.000000,0.000000,0.000000,0.000000,0.000000,0.000000,0.000000,0.000000,0.000000,0.000000,1.414465,1.160631,1.180352,1.672439,1.727769,0.319103,0.000000,0.000000,0.000000,0.000000,NO
1.5.3,lang/java/ipc/src/main/java/org/apache/avro/ipc/ResponderServlet.java,0.186732,0.000000,0.000000,0.000000,0.000000,0.000000,0.000000,0.000000,0.000000,0.000000,0.000000,1.010144,1.160631,1.896641,1.339101,1.490958,0.319103,0.328948,0.040961,0.000000,0.000000,NO
1.5.3,lang/java/ipc/src/main/java/org/apache/avro/ipc/trace/TraceNode.java,0.404585,0.000000,0.000000,0.000000,0.000000,0.000000,0.000000,0.000000,0.000000,0.000000,0.000000,0.480707,0.863787,1.203432,0.747138,0.820935,1.028220,0.657895,0.081921,0.000000,0.000000,NO
1.5.3,lang/java/ipc/src/main/java/org/apache/avro/ipc/trace/SpanStorage.java,0.068468,0.000000,0.000000,0.531930,0.000000,0.000000,0.000000,0.000000,0.000000,0.000000,0.000000,1.472413,1.160631,1.005308,1.672439,1.525095,0.691390,0.000000,0.000000,0.000000,0.000000,NO
1.5.3,lang/java/ipc/src/main/java/org/apache/avro/ipc/trace/StaticServlet.java,0.136937,0.000000,0.000000,0.000000,0.000000,0.000000,0.000000,0.000000,0.000000,0.000000,0.000000,0.458318,0.863787,1.721072,0.712654,0.797235,0.390015,0.328948,0.122882,0.000000,0.000000,NO
1.5.3,lang/java/tools/src/main/java/org/apache/avro/tool/DataFileGetSchemaTool.java,0.186732,0.000000,0.000000,0.000000,0.000000,0.000000,0.000000,0.000000,0.000000,0.000000,0.000000,1.427635,1.160631,0.893507,1.672439,1.565246,0.319103,0.328948,0.040961,0.000000,0.000000,NO
1.5.3,lang/java/tools/src/main/java/org/apache/avro/tool/ToTextTool.java,0.348566,0.000000,0.000000,0.000000,0.000000,0.000000,0.000000,0.000000,0.000000,0.000000,0.000000,0.453050,0.863787,1.134193,0.839093,0.896821,0.319103,0.328948,0.122882,0.000000,0.000000,NO
1.5.3,lang/java/tools/src/main/java/org/apache/avro/tool/Tool.java,0.056019,0.000000,0.000000,0.000000,0.000000,0.000000,0.000000,0.000000,0.000000,0.000000,0.000000,1.518509,1.160631,0.877275,1.672439,1.671759,0.673662,0.000000,0.000000,0.000000,0.000000,NO
1.5.3,lang/java/tools/src/main/java/org/apache/avro/tool/DataFileReadTool.java,0.304995,0.000000,0.000000,0.000000,0.000000,0.000000,0.000000,0.000000,0.000000,0.000000,0.000000,1.111554,1.160631,1.192598,1.164769,1.193597,0.372287,0.328948,0.081921,0.000000,0.000000,NO
1.5.3,lang/java/tools/src/main/java/org/apache/avro/tool/RpcSendTool.java,0.529073,0.000000,0.000000,0.000000,0.000000,0.000000,0.000000,0.000000,0.000000,0.000000,0.000000,1.190574,1.160631,1.277380,1.162853,1.189704,0.354559,0.657895,0.163843,0.000000,0.000000,NO
1.5.3,lang/java/tools/src/main/java/org/apache/avro/tool/SpecificCompilerTool.java,0.529073,0.655001,0.487176,0.000000,1.265598,0.844094,1.250768,2.166987,0.707364,1.206287,2.001993,0.122482,0.195221,0.306628,0.409968,0.208774,0.567294,0.986843,0.368646,0.000000,0.000000,NO
1.5.3,lang/java/compiler/src/main/java/org/apache/avro/compiler/specific/SchemaTask.java,0.056019,0.000000,0.000000,0.000000,0.000000,0.000000,0.000000,0.000000,0.000000,0.000000,0.000000,1.509290,1.160631,1.259482,1.672439,1.809852,0.319103,0.000000,0.000000,0.000000,0.000000,NO
1.5.3,lang/java/maven-plugin/src/main/java/org/apache/avro/mojo/ProtocolMojo.java,0.130712,0.000000,0.000000,0.000000,0.000000,0.000000,0.000000,0.000000,0.000000,0.000000,0.000000,0.528120,0.863787,1.322126,0.494260,0.541961,0.655934,0.000000,0.000000,0.000000,0.000000,NO
1.5.3,lang/java/maven-plugin/src/main/java/org/apache/avro/mojo/AbstractAvroMojo.java,0.429483,0.000000,0.000000,0.000000,0.000000,0.000000,0.000000,0.000000,0.000000,0.000000,0.000000,0.425393,0.863787,3.194864,0.494260,0.552921,1.010492,0.657895,0.286725,0.000000,0.000000,NO
1.5.3,lang/java/maven-plugin/src/main/java/org/apache/avro/mojo/SchemaMojo.java,0.130712,0.000000,0.000000,0.000000,0.000000,0.000000,0.000000,0.000000,0.000000,0.000000,0.000000,0.528120,0.863787,1.322126,0.494260,0.541961,0.655934,0.000000,0.000000,0.000000,0.000000,NO
1.5.3,lang/java/maven-plugin/src/main/java/org/apache/avro/mojo/IDLProtocolMojo.java,0.199180,0.000000,0.000000,0.000000,0.000000,0.000000,0.000000,0.000000,0.000000,0.000000,0.000000,0.528120,0.863787,1.322126,0.494260,0.539614,0.655934,0.328948,0.040961,0.000000,0.000000,NO
1.5.4,lang/java/ipc/src/main/java/org/apache/avro/ipc/stats/IntegerHistogram.java,0.174283,0.000000,0.000000,0.531930,0.000000,0.000000,0.000000,0.000000,0.000000,0.000000,0.000000,1.064141,1.160631,1.141729,1.444466,1.390837,0.390015,0.328948,0.081921,0.000000,0.000000,NO
1.5.4,lang/java/ipc/src/main/java/org/apache/avro/ipc/stats/FloatHistogram.java,0.168058,0.000000,0.000000,0.531930,0.000000,0.000000,0.000000,0.000000,0.000000,0.000000,0.000000,1.058873,1.160631,1.325423,1.444466,1.468630,0.390015,0.328948,0.081921,0.000000,0.000000,NO
1.5.4,lang/java/ipc/src/main/java/org/apache/avro/ipc/stats/StaticServlet.java,0.118263,0.000000,0.000000,0.000000,0.000000,0.000000,0.000000,0.000000,0.000000,0.000000,0.000000,0.482024,0.863787,1.206729,0.785453,0.856869,0.390015,0.328948,0.081921,0.000000,0.000000,NO
1.5.4,lang/java/ipc/src/main/java/org/apache/avro/ipc/Server.java,0.043571,0.000000,0.000000,0.000000,0.000000,0.000000,0.000000,0.000000,0.000000,0.000000,0.000000,1.456609,1.160631,1.215521,1.695428,1.791356,0.390015,0.000000,0.000000,0.000000,0.000000,NO
1.5.4,lang/java/ipc/src/main/java/org/apache/avro/ipc/HttpServer.java,0.410810,0.000000,0.000000,1.063860,0.000000,0.000000,0.000000,0.000000,0.000000,0.000000,0.000000,1.047020,1.160631,1.310587,1.362090,1.167109,0.496382,0.328948,0.122882,0.000000,0.000000,NO
1.5.4,lang/java/ipc/src/main/java/org/apache/avro/ipc/reflect/ReflectRequestor.java,0.298771,0.000000,0.000000,0.531930,0.000000,0.000000,0.000000,0.000000,0.000000,0.000000,0.000000,1.696304,1.160631,0.749405,1.695428,1.707669,0.372287,0.000000,0.000000,0.000000,0.000000,NO
1.5.4,lang/java/ipc/src/main/java/org/apache/avro/ipc/ResponderServlet.java,0.186732,0.000000,0.000000,0.000000,0.000000,0.000000,0.000000,0.000000,0.000000,0.000000,0.000000,1.010144,1.160631,1.896641,1.362090,1.516676,0.319103,0.328948,0.040961,0.000000,0.000000,NO
1.5.4,lang/java/ipc/src/main/java/org/apache/avro/ipc/trace/TraceNode.java,0.404585,0.000000,0.000000,0.000000,0.000000,0.000000,0.000000,0.000000,0.000000,0.000000,0.000000,0.480707,0.863787,1.203432,0.770127,0.846653,1.028220,0.657895,0.081921,0.000000,0.000000,NO
1.5.4,lang/java/ipc/src/main/java/org/apache/avro/ipc/trace/StaticServlet.java,0.136937,0.000000,0.000000,0.000000,0.000000,0.000000,0.000000,0.000000,0.000000,0.000000,0.000000,0.458318,0.863787,1.721072,0.735643,0.822952,0.390015,0.328948,0.122882,0.000000,0.000000,NO
1.5.4,lang/java/ipc/src/main/java/org/apache/avro/ipc/trace/SpanStorage.java,0.068468,0.000000,0.000000,0.531930,0.000000,0.000000,0.000000,0.000000,0.000000,0.000000,0.000000,1.472413,1.160631,1.005308,1.695428,1.550813,0.691390,0.000000,0.000000,0.000000,0.000000,NO
1.5.4,lang/java/ipc/src/main/java/org/apache/avro/ipc/CallFuture.java,0.510400,0.000000,0.000000,0.000000,0.000000,0.000000,0.000000,0.000000,0.000000,0.000000,0.000000,0.021072,0.042788,0.158260,0.164753,0.184307,1.134588,0.657895,0.245764,0.000000,0.000000,NO
1.5.4,lang/java/ipc/src/main/java/org/apache/avro/ipc/LocalTransceiver.java,0.168058,0.000000,0.000000,0.000000,0.000000,0.000000,0.000000,0.000000,0.000000,0.000000,0.000000,1.414465,1.160631,1.180352,1.695428,1.753486,0.319103,0.000000,0.000000,0.000000,0.000000,NO
1.5.4,lang/java/ipc/src/main/java/org/apache/avro/ipc/Callback.java,0.031122,0.000000,0.000000,0.000000,0.000000,0.000000,0.000000,0.000000,0.000000,0.000000,0.000000,1.477681,1.160631,1.109795,1.695428,1.439447,0.549566,0.000000,0.000000,0.000000,0.000000,NO
1.5.4,lang/java/avro/src/main/java/org/apache/avro/AvroTypeException.java,0.043571,0.000000,0.000000,0.000000,0.000000,0.000000,0.000000,0.000000,0.000000,0.000000,0.000000,1.418416,1.160631,1.331605,1.695428,1.873569,0.319103,0.000000,0.000000,0.000000,0.000000,NO
1.5.4,lang/java/avro/src/main/java/org/apache/avro/generic/GenericRecord.java,0.031122,0.000000,0.000000,0.531930,0.000000,0.000000,0.000000,0.000000,0.000000,0.000000,0.000000,1.434220,1.160631,1.196838,1.695428,1.752327,0.372287,0.000000,0.000000,0.000000,0.000000,NO
1.5.4,lang/java/avro/src/main/java/org/apache/avro/generic/IndexedRecord.java,0.031122,0.000000,0.000000,0.531930,0.000000,0.000000,0.000000,0.000000,0.000000,0.000000,0.000000,1.482949,1.160631,1.113751,1.695428,1.700934,0.425470,0.000000,0.000000,0.000000,0.000000,NO
1.5.4,lang/java/avro/src/main/java/org/apache/avro/generic/GenericDatumWriter.java,0.846517,0.000000,0.000000,2.127719,0.000000,0.000000,0.000000,0.000000,0.000000,0.000000,0.000000,1.718694,1.160631,0.496463,1.695428,1.719263,0.797757,0.657895,0.819213,0.000000,0.000000,YES
1.5.4,lang/java/avro/src/main/java/org/apache/avro/generic/GenericContainer.java,0.031122,0.000000,0.000000,0.000000,0.000000,0.000000,0.000000,0.000000,0.000000,0.000000,0.000000,1.405246,1.160631,1.507704,1.695428,1.868857,0.336831,0.000000,0.000000,0.000000,0.000000,NO
1.5.4,lang/java/avro/src/main/java/org/apache/avro/generic/GenericFixed.java,0.024898,0.000000,0.000000,0.000000,0.000000,0.000000,0.000000,0.000000,0.000000,0.000000,0.000000,1.426318,1.160631,1.339024,1.695428,1.851471,0.336831,0.000000,0.000000,0.000000,0.000000,NO
1.5.4,lang/java/avro/src/main/java/org/apache/avro/generic/GenericArray.java,0.037346,0.000000,0.000000,0.000000,0.000000,0.000000,0.000000,0.000000,0.000000,0.000000,0.000000,1.459243,1.160631,1.095947,1.695428,1.747130,0.390015,0.000000,0.000000,0.000000,0.000000,NO
1.5.4,lang/java/avro/src/main/java/org/apache/avro/reflect/Union.java,0.074693,0.000000,0.000000,0.531930,0.000000,0.000000,0.000000,0.000000,0.000000,0.000000,0.000000,1.453975,1.160631,0.992719,1.695428,1.767347,0.443198,0.000000,0.000000,0.000000,0.000000,NO
1.5.4,lang/java/avro/src/main/java/org/apache/avro/reflect/Stringable.java,0.062244,0.000000,0.000000,1.063860,0.000000,0.000000,0.000000,0.000000,0.000000,0.000000,0.000000,1.447390,1.160631,1.087045,1.695428,1.799879,0.390015,0.000000,0.000000,0.000000,0.000000,NO
1.5.4,lang/java/avro/src/main/java/org/apache/avro/reflect/Nullable.java,0.062244,0.000000,0.000000,1.063860,0.000000,0.000000,0.000000,0.000000,0.000000,0.000000,0.000000,1.453975,1.160631,0.992719,1.695428,1.752589,0.372287,0.000000,0.000000,0.000000,0.000000,NO
1.5.4,lang/java/avro/src/main/java/org/apache/avro/file/SeekableInput.java,0.056019,0.000000,0.000000,0.531930,0.000000,0.000000,0.000000,0.000000,0.000000,0.000000,0.000000,1.389442,1.160631,1.304405,1.695428,1.837028,0.390015,0.000000,0.000000,0.000000,0.000000,NO
1.5.4,lang/java/avro/src/main/java/org/apache/avro/file/Codec.java,0.099590,0.000000,0.000000,0.000000,0.000000,0.000000,0.000000,0.000000,0.000000,0.000000,0.000000,1.456609,1.160631,0.994517,1.695428,1.621247,0.567294,0.000000,0.000000,0.000000,0.000000,NO
1.5.4,lang/java/avro/src/main/java/org/apache/avro/file/SeekableFileInput.java,0.080917,0.000000,0.000000,0.000000,0.000000,0.000000,0.000000,0.000000,0.000000,0.000000,0.000000,1.378906,1.160631,1.479444,1.695428,1.876382,0.319103,0.000000,0.000000,0.000000,0.000000,NO
1.5.4,lang/java/avro/src/main/java/org/apache/avro/file/LengthLimitedInputStream.java,0.329893,0.000000,0.000000,0.000000,0.000000,0.000000,0.000000,0.000000,0.000000,0.000000,0.000000,0.446465,0.863787,1.676562,1.143695,1.279434,0.390015,0.657895,0.204803,0.000000,0.000000,NO
1.5.4,lang/java/avro/src/main/java/org/apache/avro/file/FileReader.java,0.074693,0.000000,0.000000,0.000000,0.000000,0.000000,0.000000,0.000000,0.000000,0.000000,0.000000,0.438563,0.863787,1.646888,0.687750,0.769375,0.514110,0.000000,0.000000,0.000000,0.000000,NO
1.5.4,lang/java/avro/src/main/java/org/apache/avro/specific/SpecificRecord.java,0.024898,0.000000,0.000000,0.531930,0.000000,0.000000,0.000000,0.000000,0.000000,0.000000,0.000000,1.457926,1.160631,1.216620,1.695428,1.839897,0.336831,0.000000,0.000000,0.000000,0.000000,NO
1.5.4,lang/java/avro/src/main/java/org/apache/avro/specific/SpecificFixed.java,0.043571,0.000000,0.000000,0.000000,0.000000,0.000000,0.000000,0.000000,0.000000,0.000000,0.000000,1.455292,1.160631,1.092980,1.695428,1.851279,0.319103,0.000000,0.000000,0.000000,0.000000,NO
1.5.4,lang/java/avro/src/main/java/org/apache/avro/specific/FixedSize.java,0.074693,0.000000,0.000000,0.531930,0.000000,0.000000,0.000000,0.000000,0.000000,0.000000,0.000000,1.435537,1.160631,1.197937,1.695428,1.846990,0.390015,0.000000,0.000000,0.000000,0.000000,NO
1.5.4,lang/java/avro/src/main/java/org/apache/avro/io/DatumWriter.java,0.043571,0.000000,0.000000,0.000000,0.000000,0.000000,0.000000,0.000000,0.000000,0.000000,0.000000,1.436854,1.160631,1.348915,1.695428,1.886302,0.407743,0.000000,0.000000,0.000000,0.000000,NO
1.5.4,lang/java/avro/src/main/java/org/apache/avro/io/DirectBinaryDecoder.java,0.958556,0.000000,0.000000,0.531930,0.000000,0.000000,0.000000,0.000000,0.000000,0.000000,0.000000,1.332811,1.160631,0.834160,1.551748,1.489192,0.478654,0.986843,0.614410,0.000000,0.000000,NO
1.5.4,lang/java/avro/src/main/java/org/apache/avro/io/ValidatingEncoder.java,0.946107,0.000000,0.000000,1.063860,0.000000,0.000000,0.000000,0.000000,0.000000,0.000000,0.000000,1.323592,1.160631,0.764667,1.547916,1.549206,0.620478,0.328948,0.081921,0.000000,0.000000,NO
1.5.4,lang/java/avro/src/main/java/org/apache/avro/io/ValidatingDecoder.java,1.170185,0.000000,0.000000,0.531930,0.000000,0.000000,0.000000,0.000000,0.000000,0.000000,0.000000,1.272228,1.160631,0.734994,1.547916,1.628387,0.514110,0.657895,0.450567,0.000000,0.000000,NO
1.5.4,lang/java/avro/src/main/java/org/apache/avro/io/DatumReader.java,0.043571,0.000000,0.000000,0.000000,0.000000,0.000000,0.000000,0.000000,0.000000,0.000000,0.000000,1.356517,1.160631,1.273495,1.695428,1.872632,0.425470,0.000000,0.000000,0.000000,0.000000,NO
1.5.4,lang/java/avro/src/main/java/org/apache/avro/io/Decoder.java,0.186732,0.000000,0.000000,0.000000,0.000000,0.000000,0.000000,0.000000,0.000000,0.000000,0.000000,1.647575,1.160631,0.773370,1.695428,1.771846,3.882418,0.000000,0.000000,0.000000,0.000000,NO
1.5.4,lang/java/avro/src/main/java/org/apache/avro/io/ParsingDecoder.java,0.304995,0.000000,0.000000,0.000000,0.000000,0.000000,0.000000,0.000000,0.000000,0.000000,0.000000,1.162917,1.160631,1.746789,1.496191,1.610340,0.336831,3.947372,0.532488,0.000000,0.000000,NO
1.5.4,lang/java/avro/src/main/java/org/apache/avro/io/ResolvingDecoder.java,0.896312,0.000000,0.000000,1.595789,0.000000,0.000000,0.000000,0.000000,0.000000,0.000000,0.000000,1.330177,1.160631,0.555007,1.547916,1.491774,1.879161,1.973686,1.024016,0.000000,0.000000,NO
1.5.4,lang/java/avro/src/main/java/org/apache/avro/SchemaParseException.java,0.031122,0.000000,0.000000,0.000000,0.000000,0.000000,0.000000,0.000000,0.000000,0.000000,0.000000,1.377589,1.160631,1.478031,1.695428,1.888163,0.319103,0.000000,0.000000,0.000000,0.000000,NO
1.5.4,lang/java/avro/src/main/java/org/apache/avro/UnresolvedUnionException.java,0.099590,0.000000,0.000000,0.531930,0.000000,0.000000,0.000000,0.000000,0.000000,0.000000,0.000000,1.053605,1.160631,1.318829,1.444466,1.162302,0.319103,0.000000,0.000000,0.000000,0.000000,NO
1.5.4,lang/java/avro/src/main/java/org/apache/avro/AvroRuntimeException.java,0.049795,0.000000,0.000000,0.000000,0.000000,0.000000,0.000000,0.000000,0.000000,0.000000,0.000000,1.389442,1.160631,1.304405,1.695428,1.869289,0.319103,0.000000,0.000000,0.000000,0.000000,NO
1.5.4,lang/java/compiler/src/main/java/org/apache/avro/compiler/specific/SchemaTask.java,0.056019,0.000000,0.000000,0.000000,0.000000,0.000000,0.000000,0.000000,0.000000,0.000000,0.000000,1.509290,1.160631,1.259482,1.695428,1.835570,0.319103,0.000000,0.000000,0.000000,0.000000,NO
1.5.4,lang/java/mapred/src/main/java/org/apache/avro/mapred/HadoopCombiner.java,0.199180,0.000000,0.000000,0.000000,0.000000,0.000000,0.000000,0.000000,0.000000,0.000000,0.000000,0.474122,0.863787,1.780420,0.798863,0.893675,0.372287,0.000000,0.000000,0.000000,0.000000,NO
1.5.4,lang/java/mapred/src/main/java/org/apache/avro/mapred/AvroCollector.java,0.037346,0.000000,0.000000,0.000000,0.000000,0.000000,0.000000,0.000000,0.000000,0.000000,0.000000,1.453975,1.160631,1.364988,1.695428,1.733415,0.319103,0.000000,0.000000,0.000000,0.000000,NO
1.5.4,lang/java/mapred/src/main/java/org/apache/avro/mapred/AvroValue.java,0.031122,0.000000,0.000000,0.000000,0.000000,0.000000,0.000000,0.000000,0.000000,0.000000,0.000000,1.459243,1.160631,1.217719,1.695428,1.720437,0.354559,0.000000,0.000000,0.000000,0.000000,NO
1.5.4,lang/java/mapred/src/main/java/org/apache/avro/mapred/AvroKey.java,0.031122,0.000000,0.000000,0.000000,0.000000,0.000000,0.000000,0.000000,0.000000,0.000000,0.000000,1.459243,1.160631,1.217719,1.695428,1.720437,0.354559,0.000000,0.000000,0.000000,0.000000,NO
1.5.4,lang/java/mapred/src/main/java/org/apache/avro/mapred/SequenceFileInputFormat.java,0.118263,0.000000,0.000000,0.000000,0.000000,0.000000,0.000000,0.000000,0.000000,0.000000,0.000000,0.462269,0.863787,1.157273,1.011510,1.019774,0.319103,0.000000,0.000000,0.000000,0.000000,NO
1.5.4,lang/java/mapred/src/main/java/org/apache/avro/mapred/SequenceFileRecordReader.java,0.068468,0.000000,0.000000,0.000000,0.000000,0.000000,0.000000,0.000000,0.000000,0.000000,0.000000,1.467145,1.160631,1.224313,1.695428,1.609023,0.319103,0.000000,0.000000,0.000000,0.000000,NO
1.5.4,lang/java/mapred/src/main/java/org/apache/avro/mapred/tether/TetherJob.java,0.311219,0.000000,0.000000,0.531930,0.000000,0.000000,0.000000,0.000000,0.000000,0.000000,0.000000,0.530754,0.863787,0.996540,0.867829,0.825822,0.478654,0.328948,0.081921,0.000000,0.000000,YES
1.5.4,lang/java/mapred/src/main/java/org/apache/avro/mapred/tether/TetherOutputFormat.java,0.298771,0.000000,0.000000,0.000000,0.000000,0.000000,0.000000,0.000000,0.000000,0.000000,0.000000,0.497828,0.863787,1.246294,1.011510,1.078394,0.336831,0.328948,0.040961,0.000000,0.000000,NO
1.5.4,lang/java/mapred/src/main/java/org/apache/avro/mapred/AvroUtf8InputFormat.java,0.466829,0.000000,0.000000,0.000000,0.000000,0.000000,0.000000,0.000000,0.000000,0.000000,0.000000,0.437246,0.863787,1.094628,0.867829,0.945769,0.372287,0.328948,0.040961,0.000000,0.000000,NO
1.5.4,lang/java/maven-plugin/src/main/java/org/apache/avro/mojo/SchemaMojo.java,0.130712,0.000000,0.000000,0.000000,0.000000,0.000000,0.000000,0.000000,0.000000,0.000000,0.000000,0.528120,0.863787,1.322126,0.517249,0.567678,0.655934,0.000000,0.000000,0.000000,0.000000,NO
1.5.4,lang/java/maven-plugin/src/main/java/org/apache/avro/mojo/ProtocolMojo.java,0.130712,0.000000,0.000000,0.000000,0.000000,0.000000,0.000000,0.000000,0.000000,0.000000,0.000000,0.528120,0.863787,1.322126,0.517249,0.567678,0.655934,0.000000,0.000000,0.000000,0.000000,NO
1.5.4,lang/java/maven-plugin/src/main/java/org/apache/avro/mojo/AbstractAvroMojo.java,0.429483,0.000000,0.000000,0.000000,0.000000,0.000000,0.000000,0.000000,0.000000,0.000000,0.000000,0.425393,0.863787,3.194864,0.517249,0.578638,1.010492,0.657895,0.286725,0.000000,0.000000,NO
1.5.4,lang/java/maven-plugin/src/main/java/org/apache/avro/mojo/IDLProtocolMojo.java,0.199180,0.000000,0.000000,0.000000,0.000000,0.000000,0.000000,0.000000,0.000000,0.000000,0.000000,0.528120,0.863787,1.322126,0.517249,0.565331,0.655934,0.328948,0.040961,0.000000,0.000000,NO
1.5.4,lang/java/tools/src/main/java/org/apache/avro/tool/DataFileGetSchemaTool.java,0.186732,0.000000,0.000000,0.000000,0.000000,0.000000,0.000000,0.000000,0.000000,0.000000,0.000000,1.427635,1.160631,0.893507,1.695428,1.590963,0.319103,0.328948,0.040961,0.000000,0.000000,NO
1.5.4,lang/java/tools/src/main/java/org/apache/avro/tool/Tool.java,0.056019,0.000000,0.000000,0.000000,0.000000,0.000000,0.000000,0.000000,0.000000,0.000000,0.000000,1.518509,1.160631,0.877275,1.695428,1.697477,0.673662,0.000000,0.000000,0.000000,0.000000,NO
1.5.4,lang/java/tools/src/main/java/org/apache/avro/tool/RpcSendTool.java,0.529073,0.000000,0.000000,0.000000,0.000000,0.000000,0.000000,0.000000,0.000000,0.000000,0.000000,1.190574,1.160631,1.277380,1.185842,1.215421,0.354559,0.657895,0.163843,0.000000,0.000000,NO
1.5.4,lang/java/tools/src/main/java/org/apache/avro/tool/DataFileReadTool.java,0.304995,0.000000,0.000000,0.000000,0.000000,0.000000,0.000000,0.000000,0.000000,0.000000,0.000000,1.111554,1.160631,1.192598,1.187757,1.219314,0.372287,0.328948,0.081921,0.000000,0.000000,NO
1.5.4,lang/java/tools/src/main/java/org/apache/avro/tool/ToTextTool.java,0.348566,0.000000,0.000000,0.000000,0.000000,0.000000,0.000000,0.000000,0.000000,0.000000,0.000000,0.453050,0.863787,1.134193,0.862082,0.922538,0.319103,0.328948,0.122882,0.000000,0.000000,NO
