@relation Dataset

@attribute version {1.0.0,1.1.0,1.2.0,1.3.0,1.3.1,1.3.2,1.3.3,1.4.0,1.4.1,1.5.0,1.5.1,1.5.2,1.5.3,1.5.4}
@attribute classpath {src/java/org/apache/avro/AvroRuntimeException.java,src/java/org/apache/avro/AvroTypeException.java,src/java/org/apache/avro/Protocol.java,src/java/org/apache/avro/Schema.java,src/java/org/apache/avro/SchemaParseException.java,src/java/org/apache/avro/file/DataFileReader.java,src/java/org/apache/avro/file/DataFileWriter.java,src/java/org/apache/avro/file/SeekableFileInput.java,src/java/org/apache/avro/file/SeekableInput.java,src/java/org/apache/avro/generic/GenericArray.java,src/java/org/apache/avro/generic/GenericData.java,src/java/org/apache/avro/generic/GenericDatumReader.java,src/java/org/apache/avro/generic/GenericDatumWriter.java,src/java/org/apache/avro/generic/GenericFixed.java,src/java/org/apache/avro/generic/GenericRecord.java,src/java/org/apache/avro/generic/GenericRequestor.java,src/java/org/apache/avro/generic/GenericResponder.java,src/java/org/apache/avro/io/BinaryDecoder.java,src/java/org/apache/avro/io/BinaryEncoder.java,src/java/org/apache/avro/io/BlockingBinaryEncoder.java,src/java/org/apache/avro/io/DatumReader.java,src/java/org/apache/avro/io/DatumWriter.java,src/java/org/apache/avro/io/Decoder.java,src/java/org/apache/avro/io/Encoder.java,src/java/org/apache/avro/io/ParsingTable.java,src/java/org/apache/avro/io/ResolvingDecoder.java,src/java/org/apache/avro/io/ResolvingTable.java,src/java/org/apache/avro/io/ValidatingDecoder.java,src/java/org/apache/avro/io/ValidatingEncoder.java,src/java/org/apache/avro/ipc/AvroRemoteException.java,src/java/org/apache/avro/ipc/ByteBufferInputStream.java,src/java/org/apache/avro/ipc/ByteBufferOutputStream.java,src/java/org/apache/avro/ipc/Requestor.java,src/java/org/apache/avro/ipc/Responder.java,src/java/org/apache/avro/ipc/SocketServer.java,src/java/org/apache/avro/ipc/SocketTransceiver.java,src/java/org/apache/avro/ipc/Transceiver.java,src/java/org/apache/avro/reflect/FixedSize.java,src/java/org/apache/avro/reflect/ReflectData.java,src/java/org/apache/avro/reflect/ReflectDatumReader.java,src/java/org/apache/avro/reflect/ReflectDatumWriter.java,src/java/org/apache/avro/reflect/ReflectRequestor.java,src/java/org/apache/avro/reflect/ReflectResponder.java,src/java/org/apache/avro/specific/ProtocolTask.java,src/java/org/apache/avro/specific/SchemaTask.java,src/java/org/apache/avro/specific/SpecificCompiler.java,src/java/org/apache/avro/specific/SpecificDatumReader.java,src/java/org/apache/avro/specific/SpecificDatumWriter.java,src/java/org/apache/avro/specific/SpecificExceptionBase.java,src/java/org/apache/avro/specific/SpecificFixed.java,src/java/org/apache/avro/specific/SpecificRecord.java,src/java/org/apache/avro/specific/SpecificRecordBase.java,src/java/org/apache/avro/specific/SpecificRequestor.java,src/java/org/apache/avro/specific/SpecificResponder.java,src/java/org/apache/avro/util/Utf8.java,src/java/org/apache/avro/generic/GenericContainer.java,src/java/org/apache/avro/io/BinaryData.java,src/java/org/apache/avro/io/JsonDecoder.java,src/java/org/apache/avro/io/JsonEncoder.java,src/java/org/apache/avro/io/ParsingDecoder.java,src/java/org/apache/avro/io/ParsingEncoder.java,src/java/org/apache/avro/io/parsing/JsonGrammarGenerator.java,src/java/org/apache/avro/io/parsing/Parser.java,src/java/org/apache/avro/io/parsing/ResolvingGrammarGenerator.java,src/java/org/apache/avro/io/parsing/SkipParser.java,src/java/org/apache/avro/io/parsing/Symbol.java,src/java/org/apache/avro/io/parsing/ValidatingGrammarGenerator.java,src/java/org/apache/avro/ipc/RPCContext.java,src/java/org/apache/avro/ipc/RPCPlugin.java,src/java/org/apache/avro/specific/SpecificData.java,src/java/org/apache/avro/file/DataFileConstants.java,src/java/org/apache/avro/ipc/DatagramServer.java,src/java/org/apache/avro/ipc/DatagramTransceiver.java,src/java/org/apache/avro/ipc/HttpServer.java,src/java/org/apache/avro/ipc/HttpTransceiver.java,src/java/org/apache/avro/ipc/ResponderServlet.java,src/java/org/apache/avro/ipc/Server.java,lang/java/src/java/org/apache/avro/SchemaParseException.java,lang/java/src/java/org/apache/avro/AvroRuntimeException.java,lang/java/src/java/org/apache/avro/Schema.java,lang/java/src/java/org/apache/avro/ipc/stats/StatsServlet.java,lang/java/src/java/org/apache/avro/ipc/stats/FloatHistogram.java,lang/java/src/java/org/apache/avro/ipc/stats/Histogram.java,lang/java/src/java/org/apache/avro/ipc/stats/StatsPlugin.java,lang/java/src/java/org/apache/avro/ipc/stats/Stopwatch.java,lang/java/src/java/org/apache/avro/ipc/ByteBufferOutputStream.java,lang/java/src/java/org/apache/avro/ipc/RPCContext.java,lang/java/src/java/org/apache/avro/ipc/Server.java,lang/java/src/java/org/apache/avro/ipc/AvroRemoteException.java,lang/java/src/java/org/apache/avro/ipc/Transceiver.java,lang/java/src/java/org/apache/avro/ipc/HttpTransceiver.java,lang/java/src/java/org/apache/avro/ipc/DatagramServer.java,lang/java/src/java/org/apache/avro/ipc/RPCPlugin.java,lang/java/src/java/org/apache/avro/ipc/Responder.java,lang/java/src/java/org/apache/avro/ipc/Requestor.java,lang/java/src/java/org/apache/avro/ipc/LocalTransceiver.java,lang/java/src/java/org/apache/avro/ipc/DatagramTransceiver.java,lang/java/src/java/org/apache/avro/ipc/SocketTransceiver.java,lang/java/src/java/org/apache/avro/ipc/ByteBufferInputStream.java,lang/java/src/java/org/apache/avro/ipc/SocketServer.java,lang/java/src/java/org/apache/avro/ipc/ResponderServlet.java,lang/java/src/java/org/apache/avro/ipc/HttpServer.java,lang/java/src/java/org/apache/avro/specific/SpecificDatumWriter.java,lang/java/src/java/org/apache/avro/specific/FixedSize.java,lang/java/src/java/org/apache/avro/specific/SpecificCompiler.java,lang/java/src/java/org/apache/avro/specific/SpecificExceptionBase.java,lang/java/src/java/org/apache/avro/specific/SpecificRecordBase.java,lang/java/src/java/org/apache/avro/specific/SchemaTask.java,lang/java/src/java/org/apache/avro/specific/SpecificRecord.java,lang/java/src/java/org/apache/avro/specific/ProtocolTask.java,lang/java/src/java/org/apache/avro/specific/SpecificFixed.java,lang/java/src/java/org/apache/avro/specific/SpecificRequestor.java,lang/java/src/java/org/apache/avro/specific/SpecificData.java,lang/java/src/java/org/apache/avro/specific/SpecificDatumReader.java,lang/java/src/java/org/apache/avro/specific/SpecificResponder.java,lang/java/src/java/org/apache/avro/io/ValidatingDecoder.java,lang/java/src/java/org/apache/avro/io/BinaryEncoder.java,lang/java/src/java/org/apache/avro/io/ValidatingEncoder.java,lang/java/src/java/org/apache/avro/io/DirectBinaryDecoder.java,lang/java/src/java/org/apache/avro/io/ParsingEncoder.java,lang/java/src/java/org/apache/avro/io/BlockingBinaryEncoder.java,lang/java/src/java/org/apache/avro/io/parsing/Parser.java,lang/java/src/java/org/apache/avro/io/parsing/ValidatingGrammarGenerator.java,lang/java/src/java/org/apache/avro/io/parsing/SkipParser.java,lang/java/src/java/org/apache/avro/io/parsing/Symbol.java,lang/java/src/java/org/apache/avro/io/parsing/ResolvingGrammarGenerator.java,lang/java/src/java/org/apache/avro/io/parsing/JsonGrammarGenerator.java,lang/java/src/java/org/apache/avro/io/DecoderFactory.java,lang/java/src/java/org/apache/avro/io/JsonDecoder.java,lang/java/src/java/org/apache/avro/io/Encoder.java,lang/java/src/java/org/apache/avro/io/Decoder.java,lang/java/src/java/org/apache/avro/io/DatumWriter.java,lang/java/src/java/org/apache/avro/io/ResolvingDecoder.java,lang/java/src/java/org/apache/avro/io/BinaryData.java,lang/java/src/java/org/apache/avro/io/JsonEncoder.java,lang/java/src/java/org/apache/avro/io/DatumReader.java,lang/java/src/java/org/apache/avro/io/ParsingDecoder.java,lang/java/src/java/org/apache/avro/io/BinaryDecoder.java,lang/java/src/java/org/apache/avro/generic/GenericArray.java,lang/java/src/java/org/apache/avro/generic/GenericDatumReader.java,lang/java/src/java/org/apache/avro/generic/IndexedRecord.java,lang/java/src/java/org/apache/avro/generic/GenericFixed.java,lang/java/src/java/org/apache/avro/generic/GenericRequestor.java,lang/java/src/java/org/apache/avro/generic/GenericDatumWriter.java,lang/java/src/java/org/apache/avro/generic/GenericResponder.java,lang/java/src/java/org/apache/avro/generic/GenericContainer.java,lang/java/src/java/org/apache/avro/generic/GenericRecord.java,lang/java/src/java/org/apache/avro/generic/GenericData.java,lang/java/src/java/org/apache/avro/AvroTypeException.java,lang/java/src/java/org/apache/avro/tool/JsonToBinaryFragmentTool.java,lang/java/src/java/org/apache/avro/tool/DataFileReadTool.java,lang/java/src/java/org/apache/avro/tool/RpcSendTool.java,lang/java/src/java/org/apache/avro/tool/Tool.java,lang/java/src/java/org/apache/avro/tool/GenAvroTool.java,lang/java/src/java/org/apache/avro/tool/RpcReceiveTool.java,lang/java/src/java/org/apache/avro/tool/DataFileGetSchemaTool.java,lang/java/src/java/org/apache/avro/tool/Main.java,lang/java/src/java/org/apache/avro/tool/Util.java,lang/java/src/java/org/apache/avro/tool/BinaryFragmentToJsonTool.java,lang/java/src/java/org/apache/avro/tool/DataFileWriteTool.java,lang/java/src/java/org/apache/avro/util/Utf8.java,lang/java/src/java/org/apache/avro/file/LengthLimitedInputStream.java,lang/java/src/java/org/apache/avro/file/Codec.java,lang/java/src/java/org/apache/avro/file/DeflateCodec.java,lang/java/src/java/org/apache/avro/file/DataFileWriter.java,lang/java/src/java/org/apache/avro/file/SeekableFileInput.java,lang/java/src/java/org/apache/avro/file/CodecFactory.java,lang/java/src/java/org/apache/avro/file/DataFileConstants.java,lang/java/src/java/org/apache/avro/file/SeekableInput.java,lang/java/src/java/org/apache/avro/file/NullCodec.java,lang/java/src/java/org/apache/avro/file/DataFileReader.java,lang/java/src/java/org/apache/avro/file/DataFileStream.java,lang/java/src/java/org/apache/avro/reflect/InduceSchemaTool.java,lang/java/src/java/org/apache/avro/reflect/ReflectData.java,lang/java/src/java/org/apache/avro/reflect/ReflectRequestor.java,lang/java/src/java/org/apache/avro/reflect/Union.java,lang/java/src/java/org/apache/avro/reflect/ReflectResponder.java,lang/java/src/java/org/apache/avro/reflect/Stringable.java,lang/java/src/java/org/apache/avro/reflect/ReflectDatumReader.java,lang/java/src/java/org/apache/avro/reflect/ReflectDatumWriter.java,lang/java/src/java/org/apache/avro/Protocol.java,lang/java/src/java/org/apache/avro/reflect/Nullable.java,lang/java/src/java/org/apache/avro/ipc/stats/StatsServer.java,lang/java/src/java/org/apache/avro/ipc/stats/StaticServlet.java,lang/java/src/java/org/apache/avro/ipc/stats/IntegerHistogram.java,lang/java/src/java/org/apache/avro/ipc/NettyServer.java,lang/java/src/java/org/apache/avro/ipc/trace/Trace.java,lang/java/src/java/org/apache/avro/ipc/trace/TraceClientServlet.java,lang/java/src/java/org/apache/avro/ipc/trace/TracePlugin.java,lang/java/src/java/org/apache/avro/ipc/trace/StaticServlet.java,lang/java/src/java/org/apache/avro/ipc/trace/SpanStorage.java,lang/java/src/java/org/apache/avro/ipc/trace/Util.java,lang/java/src/java/org/apache/avro/ipc/trace/TraceCollection.java,lang/java/src/java/org/apache/avro/ipc/trace/SpanAggregator.java,lang/java/src/java/org/apache/avro/ipc/trace/TraceNode.java,lang/java/src/java/org/apache/avro/ipc/trace/FileSpanStorage.java,lang/java/src/java/org/apache/avro/ipc/trace/TracePluginConfiguration.java,lang/java/src/java/org/apache/avro/ipc/trace/InMemorySpanStorage.java,lang/java/src/java/org/apache/avro/ipc/NettyTransceiver.java,lang/java/src/java/org/apache/avro/ipc/NettyTransportCodec.java,lang/java/src/java/org/apache/avro/mapred/HadoopReducer.java,lang/java/src/java/org/apache/avro/mapred/tether/TetherReducer.java,lang/java/src/java/org/apache/avro/mapred/tether/TetherPartitioner.java,lang/java/src/java/org/apache/avro/mapred/tether/TetherKeyComparator.java,lang/java/src/java/org/apache/avro/mapred/tether/TetherRecordReader.java,lang/java/src/java/org/apache/avro/mapred/tether/TetherJob.java,lang/java/src/java/org/apache/avro/mapred/tether/TetherOutputFormat.java,lang/java/src/java/org/apache/avro/mapred/tether/TetherInputFormat.java,lang/java/src/java/org/apache/avro/mapred/tether/TetherMapRunner.java,lang/java/src/java/org/apache/avro/mapred/tether/TetherOutputService.java,lang/java/src/java/org/apache/avro/mapred/tether/TetheredProcess.java,lang/java/src/java/org/apache/avro/mapred/tether/TetherKeySerialization.java,lang/java/src/java/org/apache/avro/mapred/tether/TetherData.java,lang/java/src/java/org/apache/avro/mapred/AvroWrapper.java,lang/java/src/java/org/apache/avro/mapred/AvroJob.java,lang/java/src/java/org/apache/avro/mapred/AvroValue.java,lang/java/src/java/org/apache/avro/mapred/AvroUtf8InputFormat.java,lang/java/src/java/org/apache/avro/mapred/AvroSerialization.java,lang/java/src/java/org/apache/avro/mapred/AvroInputFormat.java,lang/java/src/java/org/apache/avro/mapred/AvroMapper.java,lang/java/src/java/org/apache/avro/mapred/AvroRecordReader.java,lang/java/src/java/org/apache/avro/mapred/AvroReducer.java,lang/java/src/java/org/apache/avro/mapred/Pair.java,lang/java/src/java/org/apache/avro/mapred/FsInput.java,lang/java/src/java/org/apache/avro/mapred/AvroKeyComparator.java,lang/java/src/java/org/apache/avro/mapred/HadoopCombiner.java,lang/java/src/java/org/apache/avro/mapred/HadoopMapper.java,lang/java/src/java/org/apache/avro/mapred/AvroKey.java,lang/java/src/java/org/apache/avro/mapred/HadoopReducerBase.java,lang/java/src/java/org/apache/avro/mapred/AvroCollector.java,lang/java/src/java/org/apache/avro/mapred/AvroOutputFormat.java,lang/java/src/java/org/apache/avro/generic/GenericEnumSymbol.java,lang/java/src/java/org/apache/avro/tool/ToTextTool.java,lang/java/src/java/org/apache/avro/tool/IdlTool.java,lang/java/src/java/org/apache/avro/tool/FromTextTool.java,lang/java/src/java/org/apache/avro/util/WeakIdentityHashMap.java,lang/java/src/java/org/apache/avro/ipc/SaslSocketServer.java,lang/java/src/java/org/apache/avro/ipc/SaslSocketTransceiver.java,lang/java/src/java/org/apache/avro/mapred/SequenceFileReader.java,lang/java/src/java/org/apache/avro/mapred/SequenceFileInputFormat.java,lang/java/src/java/org/apache/avro/mapred/SequenceFileRecordReader.java,lang/java/src/java/org/apache/avro/file/FileReader.java,lang/java/mapred/src/main/java/org/apache/avro/mapred/AvroReducer.java,lang/java/mapred/src/main/java/org/apache/avro/mapred/SequenceFileInputFormat.java,lang/java/mapred/src/main/java/org/apache/avro/mapred/SequenceFileReader.java,lang/java/mapred/src/main/java/org/apache/avro/mapred/AvroValue.java,lang/java/mapred/src/main/java/org/apache/avro/mapred/AvroKey.java,lang/java/mapred/src/main/java/org/apache/avro/mapred/AvroOutputFormat.java,lang/java/mapred/src/main/java/org/apache/avro/mapred/AvroRecordReader.java,lang/java/mapred/src/main/java/org/apache/avro/mapred/AvroSerialization.java,lang/java/mapred/src/main/java/org/apache/avro/mapred/AvroCollector.java,lang/java/mapred/src/main/java/org/apache/avro/mapred/HadoopMapper.java,lang/java/mapred/src/main/java/org/apache/avro/mapred/FsInput.java,lang/java/mapred/src/main/java/org/apache/avro/mapred/AvroKeyComparator.java,lang/java/mapred/src/main/java/org/apache/avro/mapred/AvroMapper.java,lang/java/mapred/src/main/java/org/apache/avro/mapred/AvroUtf8InputFormat.java,lang/java/mapred/src/main/java/org/apache/avro/mapred/AvroWrapper.java,lang/java/mapred/src/main/java/org/apache/avro/mapred/HadoopReducerBase.java,lang/java/mapred/src/main/java/org/apache/avro/mapred/AvroInputFormat.java,lang/java/mapred/src/main/java/org/apache/avro/mapred/tether/TetherKeySerialization.java,lang/java/mapred/src/main/java/org/apache/avro/mapred/tether/TetheredProcess.java,lang/java/mapred/src/main/java/org/apache/avro/mapred/tether/TetherMapRunner.java,lang/java/mapred/src/main/java/org/apache/avro/mapred/tether/TetherOutputService.java,lang/java/mapred/src/main/java/org/apache/avro/mapred/tether/TetherRecordReader.java,lang/java/mapred/src/main/java/org/apache/avro/mapred/tether/TetherReducer.java,lang/java/mapred/src/main/java/org/apache/avro/mapred/tether/TetherInputFormat.java,lang/java/mapred/src/main/java/org/apache/avro/mapred/tether/TetherOutputFormat.java,lang/java/mapred/src/main/java/org/apache/avro/mapred/tether/TetherData.java,lang/java/mapred/src/main/java/org/apache/avro/mapred/tether/TetherKeyComparator.java,lang/java/mapred/src/main/java/org/apache/avro/mapred/tether/TetherJob.java,lang/java/mapred/src/main/java/org/apache/avro/mapred/tether/TetherPartitioner.java,lang/java/mapred/src/main/java/org/apache/avro/mapred/HadoopCombiner.java,lang/java/mapred/src/main/java/org/apache/avro/mapred/HadoopReducer.java,lang/java/mapred/src/main/java/org/apache/avro/mapred/Pair.java,lang/java/mapred/src/main/java/org/apache/avro/mapred/SequenceFileRecordReader.java,lang/java/mapred/src/main/java/org/apache/avro/mapred/AvroJob.java,lang/java/avro/src/main/java/org/apache/avro/Protocol.java,lang/java/avro/src/main/java/org/apache/avro/specific/SpecificDatumWriter.java,lang/java/avro/src/main/java/org/apache/avro/specific/SpecificData.java,lang/java/avro/src/main/java/org/apache/avro/specific/SpecificDatumReader.java,lang/java/avro/src/main/java/org/apache/avro/specific/FixedSize.java,lang/java/avro/src/main/java/org/apache/avro/specific/SpecificRecord.java,lang/java/avro/src/main/java/org/apache/avro/specific/SpecificExceptionBase.java,lang/java/avro/src/main/java/org/apache/avro/specific/SpecificFixed.java,lang/java/avro/src/main/java/org/apache/avro/specific/SpecificRecordBase.java,lang/java/avro/src/main/java/org/apache/avro/UnresolvedUnionException.java,lang/java/avro/src/main/java/org/apache/avro/AvroRemoteException.java,lang/java/avro/src/main/java/org/apache/avro/Schema.java,lang/java/avro/src/main/java/org/apache/avro/reflect/Nullable.java,lang/java/avro/src/main/java/org/apache/avro/reflect/ReflectDatumWriter.java,lang/java/avro/src/main/java/org/apache/avro/reflect/Stringable.java,lang/java/avro/src/main/java/org/apache/avro/reflect/ReflectDatumReader.java,lang/java/avro/src/main/java/org/apache/avro/reflect/ReflectData.java,lang/java/avro/src/main/java/org/apache/avro/reflect/Union.java,lang/java/avro/src/main/java/org/apache/avro/io/ParsingEncoder.java,lang/java/avro/src/main/java/org/apache/avro/io/EncoderFactory.java,lang/java/avro/src/main/java/org/apache/avro/io/Decoder.java,lang/java/avro/src/main/java/org/apache/avro/io/parsing/ResolvingGrammarGenerator.java,lang/java/avro/src/main/java/org/apache/avro/io/parsing/ValidatingGrammarGenerator.java,lang/java/avro/src/main/java/org/apache/avro/io/parsing/SkipParser.java,lang/java/avro/src/main/java/org/apache/avro/io/parsing/Symbol.java,lang/java/avro/src/main/java/org/apache/avro/io/parsing/JsonGrammarGenerator.java,lang/java/avro/src/main/java/org/apache/avro/io/parsing/Parser.java,lang/java/avro/src/main/java/org/apache/avro/io/DirectBinaryDecoder.java,lang/java/avro/src/main/java/org/apache/avro/io/JsonEncoder.java,lang/java/avro/src/main/java/org/apache/avro/io/ValidatingEncoder.java,lang/java/avro/src/main/java/org/apache/avro/io/ValidatingDecoder.java,lang/java/avro/src/main/java/org/apache/avro/io/DatumReader.java,lang/java/avro/src/main/java/org/apache/avro/io/DatumWriter.java,lang/java/avro/src/main/java/org/apache/avro/io/BlockingBinaryEncoder.java,lang/java/avro/src/main/java/org/apache/avro/io/ParsingDecoder.java,lang/java/avro/src/main/java/org/apache/avro/io/DirectBinaryEncoder.java,lang/java/avro/src/main/java/org/apache/avro/io/BinaryDecoder.java,lang/java/avro/src/main/java/org/apache/avro/io/BinaryData.java,lang/java/avro/src/main/java/org/apache/avro/io/BinaryEncoder.java,lang/java/avro/src/main/java/org/apache/avro/io/Encoder.java,lang/java/avro/src/main/java/org/apache/avro/io/ResolvingDecoder.java,lang/java/avro/src/main/java/org/apache/avro/io/BufferedBinaryEncoder.java,lang/java/avro/src/main/java/org/apache/avro/io/DecoderFactory.java,lang/java/avro/src/main/java/org/apache/avro/io/JsonDecoder.java,lang/java/avro/src/main/java/org/apache/avro/SchemaParseException.java,lang/java/avro/src/main/java/org/apache/avro/generic/GenericRecord.java,lang/java/avro/src/main/java/org/apache/avro/generic/GenericData.java,lang/java/avro/src/main/java/org/apache/avro/generic/GenericEnumSymbol.java,lang/java/avro/src/main/java/org/apache/avro/generic/GenericContainer.java,lang/java/avro/src/main/java/org/apache/avro/generic/GenericFixed.java,lang/java/avro/src/main/java/org/apache/avro/generic/GenericDatumReader.java,lang/java/avro/src/main/java/org/apache/avro/generic/GenericDatumWriter.java,lang/java/avro/src/main/java/org/apache/avro/generic/GenericArray.java,lang/java/avro/src/main/java/org/apache/avro/generic/IndexedRecord.java,lang/java/avro/src/main/java/org/apache/avro/file/DataFileWriter.java,lang/java/avro/src/main/java/org/apache/avro/file/DataFileStream.java,lang/java/avro/src/main/java/org/apache/avro/file/NullCodec.java,lang/java/avro/src/main/java/org/apache/avro/file/SeekableFileInput.java,lang/java/avro/src/main/java/org/apache/avro/file/Codec.java,lang/java/avro/src/main/java/org/apache/avro/file/DeflateCodec.java,lang/java/avro/src/main/java/org/apache/avro/file/CodecFactory.java,lang/java/avro/src/main/java/org/apache/avro/file/FileReader.java,lang/java/avro/src/main/java/org/apache/avro/file/DataFileReader.java,lang/java/avro/src/main/java/org/apache/avro/file/DataFileConstants.java,lang/java/avro/src/main/java/org/apache/avro/file/LengthLimitedInputStream.java,lang/java/avro/src/main/java/org/apache/avro/file/SeekableInput.java,lang/java/avro/src/main/java/org/apache/avro/file/DataFileReader12.java,lang/java/avro/src/main/java/org/apache/avro/util/Utf8.java,lang/java/avro/src/main/java/org/apache/avro/util/WeakIdentityHashMap.java,lang/java/avro/src/main/java/org/apache/avro/util/ByteBufferInputStream.java,lang/java/avro/src/main/java/org/apache/avro/util/ByteBufferOutputStream.java,lang/java/avro/src/main/java/org/apache/avro/AvroRuntimeException.java,lang/java/avro/src/main/java/org/apache/avro/AvroTypeException.java,lang/java/ipc/src/main/java/org/apache/avro/ipc/RPCContext.java,lang/java/ipc/src/main/java/org/apache/avro/ipc/NettyTransportCodec.java,lang/java/ipc/src/main/java/org/apache/avro/ipc/SaslSocketTransceiver.java,lang/java/ipc/src/main/java/org/apache/avro/ipc/specific/SpecificResponder.java,lang/java/ipc/src/main/java/org/apache/avro/ipc/specific/SpecificRequestor.java,lang/java/ipc/src/main/java/org/apache/avro/ipc/SocketTransceiver.java,lang/java/ipc/src/main/java/org/apache/avro/ipc/Transceiver.java,lang/java/ipc/src/main/java/org/apache/avro/ipc/Server.java,lang/java/ipc/src/main/java/org/apache/avro/ipc/reflect/ReflectRequestor.java,lang/java/ipc/src/main/java/org/apache/avro/ipc/reflect/ReflectResponder.java,lang/java/ipc/src/main/java/org/apache/avro/ipc/RPCPlugin.java,lang/java/ipc/src/main/java/org/apache/avro/ipc/NettyServer.java,lang/java/ipc/src/main/java/org/apache/avro/ipc/stats/Histogram.java,lang/java/ipc/src/main/java/org/apache/avro/ipc/stats/IntegerHistogram.java,lang/java/ipc/src/main/java/org/apache/avro/ipc/stats/Stopwatch.java,lang/java/ipc/src/main/java/org/apache/avro/ipc/stats/StatsServer.java,lang/java/ipc/src/main/java/org/apache/avro/ipc/stats/StatsPlugin.java,lang/java/ipc/src/main/java/org/apache/avro/ipc/stats/FloatHistogram.java,lang/java/ipc/src/main/java/org/apache/avro/ipc/stats/StaticServlet.java,lang/java/ipc/src/main/java/org/apache/avro/ipc/stats/StatsServlet.java,lang/java/ipc/src/main/java/org/apache/avro/ipc/DatagramServer.java,lang/java/ipc/src/main/java/org/apache/avro/ipc/DatagramTransceiver.java,lang/java/ipc/src/main/java/org/apache/avro/ipc/NettyTransceiver.java,lang/java/ipc/src/main/java/org/apache/avro/ipc/HttpServer.java,lang/java/ipc/src/main/java/org/apache/avro/ipc/LocalTransceiver.java,lang/java/ipc/src/main/java/org/apache/avro/ipc/Responder.java,lang/java/ipc/src/main/java/org/apache/avro/ipc/generic/GenericResponder.java,lang/java/ipc/src/main/java/org/apache/avro/ipc/generic/GenericRequestor.java,lang/java/ipc/src/main/java/org/apache/avro/ipc/HttpTransceiver.java,lang/java/ipc/src/main/java/org/apache/avro/ipc/SocketServer.java,lang/java/ipc/src/main/java/org/apache/avro/ipc/ResponderServlet.java,lang/java/ipc/src/main/java/org/apache/avro/ipc/trace/TraceNode.java,lang/java/ipc/src/main/java/org/apache/avro/ipc/trace/InMemorySpanStorage.java,lang/java/ipc/src/main/java/org/apache/avro/ipc/trace/FileSpanStorage.java,lang/java/ipc/src/main/java/org/apache/avro/ipc/trace/Trace.java,lang/java/ipc/src/main/java/org/apache/avro/ipc/trace/TraceCollection.java,lang/java/ipc/src/main/java/org/apache/avro/ipc/trace/TraceClientServlet.java,lang/java/ipc/src/main/java/org/apache/avro/ipc/trace/SpanStorage.java,lang/java/ipc/src/main/java/org/apache/avro/ipc/trace/TracePlugin.java,lang/java/ipc/src/main/java/org/apache/avro/ipc/trace/StaticServlet.java,lang/java/ipc/src/main/java/org/apache/avro/ipc/trace/TracePluginConfiguration.java,lang/java/ipc/src/main/java/org/apache/avro/ipc/trace/Util.java,lang/java/ipc/src/main/java/org/apache/avro/ipc/trace/SpanAggregator.java,lang/java/ipc/src/main/java/org/apache/avro/ipc/SaslSocketServer.java,lang/java/ipc/src/main/java/org/apache/avro/ipc/Ipc.java,lang/java/ipc/src/main/java/org/apache/avro/ipc/Requestor.java,lang/java/tools/src/main/java/org/apache/avro/tool/DataFileGetSchemaTool.java,lang/java/tools/src/main/java/org/apache/avro/tool/ToTextTool.java,lang/java/tools/src/main/java/org/apache/avro/tool/TetherTool.java,lang/java/tools/src/main/java/org/apache/avro/tool/DataFileWriteTool.java,lang/java/tools/src/main/java/org/apache/avro/tool/Tool.java,lang/java/tools/src/main/java/org/apache/avro/tool/DataFileReadTool.java,lang/java/tools/src/main/java/org/apache/avro/tool/JsonToBinaryFragmentTool.java,lang/java/tools/src/main/java/org/apache/avro/tool/RpcSendTool.java,lang/java/tools/src/main/java/org/apache/avro/tool/RpcReceiveTool.java,lang/java/tools/src/main/java/org/apache/avro/tool/BinaryFragmentToJsonTool.java,lang/java/tools/src/main/java/org/apache/avro/tool/Main.java,lang/java/tools/src/main/java/org/apache/avro/tool/SpecificCompilerTool.java,lang/java/tools/src/main/java/org/apache/avro/tool/FromTextTool.java,lang/java/tools/src/main/java/org/apache/avro/tool/RecodecTool.java,lang/java/tools/src/main/java/org/apache/avro/tool/InduceSchemaTool.java,lang/java/tools/src/main/java/org/apache/avro/tool/Util.java,lang/java/tools/src/main/java/org/apache/avro/tool/IdlTool.java,lang/java/compiler/src/main/java/org/apache/avro/compiler/specific/SchemaTask.java,lang/java/compiler/src/main/java/org/apache/avro/compiler/specific/SpecificCompiler.java,lang/java/compiler/src/main/java/org/apache/avro/compiler/specific/ProtocolTask.java,lang/java/maven-plugin/src/main/java/org/apache/avro/mojo/ProtocolMojo.java,lang/java/maven-plugin/src/main/java/org/apache/avro/mojo/AbstractAvroMojo.java,lang/java/maven-plugin/src/main/java/org/apache/avro/mojo/SchemaMojo.java,lang/java/maven-plugin/src/main/java/org/apache/avro/mojo/IDLProtocolMojo.java,lang/java/mapred/src/main/java/org/apache/avro/mapred/AvroAsTextRecordReader.java,lang/java/mapred/src/main/java/org/apache/avro/mapred/AvroTextOutputFormat.java,lang/java/mapred/src/main/java/org/apache/avro/mapred/AvroAsTextInputFormat.java,lang/java/avro/src/main/java/org/apache/avro/file/SnappyCodec.java,lang/java/ipc/src/main/java/org/apache/avro/ipc/CallFuture.java,lang/java/ipc/src/main/java/org/apache/avro/ipc/Callback.java}
@attribute LOC numeric
@attribute LOC_TOUCHED numeric
@attribute REVS numeric
@attribute FIXES numeric
@attribute AUTH numeric
@attribute LOC_ADDED numeric
@attribute MAX_LOC_ADDED numeric
@attribute AVG_LOC_ADDED numeric
@attribute CHURN numeric
@attribute MAX_CHURN numeric
@attribute AVG_CHURN numeric
@attribute CHANGE_SET_SIZE numeric
@attribute MAX_CHANGE_SET numeric
@attribute AVG_CHANGE_SET numeric
@attribute AGE numeric
@attribute WEIGHTED_AGE numeric
@attribute COMMENT_LINES numeric
@attribute NESTING_DEPTH numeric
@attribute DECISION_POINTS numeric
@attribute nsmells numeric
@attribute DISTINCT_SMELL_TYPES numeric
@attribute BUGGY {YES,NO}


@data
1.1.0,src/java/org/apache/avro/Protocol.java,1.543648,0.057313,0.974352,0.531930,1.265598,0.057033,0.050707,0.073209,0.031207,0.035479,0.044162,0.574215,0.294169,0.287505,0.758632,0.828893,0.939581,0.986843,1.269780,1.511417,1.571612,NO
1.1.0,src/java/org/apache/avro/Schema.java,3.715960,0.573126,1.948704,0.531930,1.265598,0.422047,0.388752,0.270873,0.457706,0.390269,0.323852,0.600555,0.294169,0.225520,0.758632,0.808733,1.365051,2.631581,3.440694,6.931673,4.714835,YES
1.1.0,src/java/org/apache/avro/file/DataFileReader.java,0.989678,0.024563,0.487176,0.000000,1.265598,0.022813,0.033805,0.058567,0.010402,0.017740,0.029441,0.464903,0.294169,0.498800,0.758632,0.838043,0.797757,0.986843,0.778252,0.833885,1.571612,YES
1.1.0,src/java/org/apache/avro/file/DataFileWriter.java,0.890087,0.131000,0.974352,0.531930,1.265598,0.171100,0.219730,0.219627,0.145634,0.230614,0.206088,0.474122,0.294169,0.445105,0.758632,0.833354,0.815485,0.328948,0.204803,0.208471,1.257289,YES
1.1.0,src/java/org/apache/avro/generic/GenericData.java,2.197209,1.457376,1.461528,0.000000,1.265598,1.870696,2.619852,1.600837,1.560361,2.572229,1.472054,0.603189,0.294169,0.348475,0.758632,0.788280,0.797757,3.947372,4.055104,2.762246,2.828901,YES
1.1.0,src/java/org/apache/avro/generic/GenericDatumReader.java,2.128741,0.171938,1.948704,0.531930,1.265598,0.125473,0.084511,0.080530,0.010402,0.017740,0.007360,0.666405,0.294169,0.263419,0.758632,0.780102,1.613242,1.644738,3.891261,1.302946,1.257289,YES
1.1.0,src/java/org/apache/avro/generic/GenericDatumWriter.java,0.759375,0.826938,1.461528,0.531930,1.265598,0.228134,0.185925,0.195224,0.780180,1.206287,0.736027,0.525486,0.294169,0.328883,0.758632,0.795609,0.797757,0.657895,0.696331,0.156354,0.628645,YES
1.1.0,src/java/org/apache/avro/generic/GenericFixed.java,0.024898,0.016375,0.487176,0.000000,1.265598,0.011407,0.016902,0.029284,0.000000,0.000000,0.000000,0.401687,0.294169,0.603364,0.758632,0.832575,0.336831,0.000000,0.000000,0.052118,0.314322,NO
1.1.0,src/java/org/apache/avro/generic/GenericRequestor.java,0.186732,0.008188,0.487176,0.000000,1.265598,0.011407,0.016902,0.029284,0.010402,0.017740,0.029441,0.466220,0.294169,0.500213,0.758632,0.830315,0.319103,0.000000,0.000000,0.052118,0.314322,NO
1.1.0,src/java/org/apache/avro/io/BinaryDecoder.java,1.282224,0.040938,0.974352,0.000000,1.265598,0.034220,0.033805,0.043925,0.010402,0.017740,0.014721,0.147505,0.173827,0.276954,0.614952,0.686392,1.045948,0.986843,0.778252,0.156354,0.942967,NO
1.1.0,src/java/org/apache/avro/io/BinaryEncoder.java,1.095492,0.040938,0.487176,0.000000,1.265598,0.034220,0.050707,0.087851,0.010402,0.017740,0.029441,0.451733,0.294169,0.484670,0.758632,0.752011,0.691390,0.328948,0.204803,1.198710,1.257289,YES
1.1.0,src/java/org/apache/avro/io/BlockingBinaryEncoder.java,2.626692,0.081875,0.974352,0.531930,1.265598,0.091253,0.084511,0.117134,0.062414,0.088698,0.088323,0.144871,0.173827,0.272009,0.649435,0.723792,2.198264,1.315791,1.843229,1.042357,1.571612,YES
1.1.0,src/java/org/apache/avro/io/Decoder.java,0.199180,0.139188,1.461528,0.000000,1.265598,0.057033,0.050707,0.048806,0.072817,0.124177,0.068696,0.497828,0.294169,0.373888,0.758632,0.757298,3.882418,0.000000,0.000000,0.052118,0.314322,NO
1.1.0,src/java/org/apache/avro/io/ResolvingDecoder.java,0.697131,1.285439,0.974352,0.000000,1.265598,0.787061,1.149354,1.010284,0.218450,0.354790,0.309131,0.136969,0.173827,0.342896,0.611120,0.659710,1.382779,1.973686,0.778252,0.469061,0.628645,YES
1.1.0,src/java/org/apache/avro/io/ValidatingDecoder.java,1.114165,2.292502,0.974352,0.000000,1.265598,0.866908,1.267670,1.112777,1.352313,2.288397,1.913670,0.136969,0.173827,0.342896,0.611120,0.658236,0.372287,0.657895,0.409606,0.833885,0.942967,YES
1.1.0,src/java/org/apache/avro/io/ValidatingEncoder.java,0.927434,1.539252,0.974352,0.000000,1.265598,0.946754,1.385986,1.215270,0.249658,0.408009,0.353293,0.136969,0.173827,0.342896,0.611120,0.657279,0.443198,0.328948,0.081921,0.416943,0.314322,YES
1.1.0,src/java/org/apache/avro/ipc/AvroRemoteException.java,0.093366,0.008188,0.487176,0.000000,1.265598,0.011407,0.016902,0.029284,0.010402,0.017740,0.029441,0.409589,0.294169,0.615234,0.758632,0.843195,0.319103,0.328948,0.040961,0.052118,0.314322,NO
1.1.0,src/java/org/apache/avro/ipc/ByteBufferInputStream.java,0.311219,0.024563,0.487176,0.000000,1.265598,0.022813,0.033805,0.058567,0.010402,0.017740,0.029441,0.409589,0.294169,0.439453,0.758632,0.844556,0.531838,0.657895,0.286725,0.312707,0.628645,NO
1.1.0,src/java/org/apache/avro/ipc/ByteBufferOutputStream.java,0.342341,0.081875,0.487176,0.000000,1.265598,0.079847,0.118316,0.204985,0.041610,0.070958,0.117764,0.400370,0.294169,0.601386,0.758632,0.839140,0.443198,0.328948,0.163843,0.156354,0.628645,NO
1.1.0,src/java/org/apache/avro/ipc/Requestor.java,1.045697,0.483063,0.974352,0.000000,1.265598,0.615961,0.895820,0.790657,0.509718,0.851497,0.721306,0.520218,0.294169,0.390703,0.758632,0.781682,0.673662,0.657895,0.737292,0.416943,0.942967,NO
1.1.0,src/java/org/apache/avro/ipc/Responder.java,0.977229,0.556751,0.974352,0.000000,1.265598,0.661587,0.676091,0.849225,0.499315,0.638622,0.706586,0.505731,0.294169,0.345293,0.758632,0.791470,0.602750,0.657895,0.696331,0.625414,0.942967,NO
1.1.0,src/java/org/apache/avro/ipc/SocketServer.java,0.460605,0.024563,0.487176,0.000000,1.265598,0.022813,0.033805,0.058567,0.010402,0.017740,0.029441,0.442514,0.294169,0.553908,0.758632,0.830482,0.319103,0.657895,0.245764,0.312707,1.257289,NO
1.1.0,src/java/org/apache/avro/ipc/SocketTransceiver.java,0.392136,0.049125,0.487176,0.000000,1.265598,0.045627,0.067609,0.117134,0.020805,0.035479,0.058882,0.408272,0.294169,0.613256,0.758632,0.840945,0.372287,0.657895,0.204803,0.104236,0.314322,NO
1.1.0,src/java/org/apache/avro/ipc/Transceiver.java,0.099590,0.040938,0.487176,0.000000,1.265598,0.034220,0.050707,0.087851,0.010402,0.017740,0.029441,0.408272,0.294169,0.613256,0.758632,0.837566,0.319103,0.000000,0.000000,0.052118,0.314322,NO
1.1.0,src/java/org/apache/avro/reflect/ReflectData.java,1.419160,1.023439,1.948704,0.531930,1.265598,1.060821,0.676091,0.680844,0.634547,0.478967,0.448976,0.579483,0.294169,0.334780,0.758632,0.796966,0.868669,4.276319,2.129954,1.824124,1.885934,YES
1.1.0,src/java/org/apache/avro/reflect/ReflectDatumReader.java,0.491727,0.180125,1.461528,1.063860,1.265598,0.125473,0.101414,0.107373,0.062414,0.053219,0.058882,0.524169,0.294169,0.357882,0.758632,0.826996,0.390015,0.657895,0.327685,0.156354,0.628645,YES
1.1.0,src/java/org/apache/avro/reflect/ReflectDatumWriter.java,0.211629,0.507625,3.410233,1.595789,1.265598,0.342200,0.270436,0.125501,0.353682,0.248353,0.143000,0.612408,0.294169,0.306628,0.758632,0.784591,0.372287,0.328948,0.040961,0.052118,0.314322,YES
1.1.0,src/java/org/apache/avro/reflect/ReflectRequestor.java,0.466829,0.319313,1.948704,0.000000,1.265598,0.387827,0.304241,0.248911,0.301670,0.283832,0.213448,0.493877,0.294169,0.412134,0.758632,0.806361,0.372287,0.328948,0.040961,0.156354,0.942967,NO
1.1.0,src/java/org/apache/avro/reflect/ReflectResponder.java,0.566419,0.073688,1.461528,0.000000,1.265598,0.079847,0.084511,0.068328,0.052012,0.070958,0.049068,0.572898,0.294169,0.391153,0.758632,0.836314,0.372287,0.657895,0.860174,0.416943,0.942967,YES
1.1.0,src/java/org/apache/avro/specific/ProtocolTask.java,0.448156,0.040938,0.487176,0.000000,1.265598,0.034220,0.050707,0.087851,0.010402,0.017740,0.029441,0.380615,0.294169,0.571712,0.758632,0.843349,0.390015,0.986843,0.368646,0.364825,1.571612,NO
1.1.0,src/java/org/apache/avro/specific/SpecificCompiler.java,1.419160,0.221063,1.948704,0.000000,1.265598,0.262354,0.202827,0.168381,0.197646,0.195135,0.139845,0.584751,0.294169,0.274481,0.758632,0.832893,0.585022,1.315791,2.375717,1.042357,1.885934,YES
1.1.0,src/java/org/apache/avro/specific/SpecificDatumWriter.java,0.074693,0.032750,0.974352,0.531930,1.265598,0.022813,0.016902,0.029284,0.000000,0.000000,0.000000,0.455684,0.294169,0.427795,0.758632,0.837615,0.319103,0.000000,0.000000,0.052118,0.314322,NO
1.1.0,src/java/org/apache/avro/specific/SpecificExceptionBase.java,0.093366,0.024563,0.974352,0.000000,1.265598,0.022813,0.016902,0.029284,0.010402,0.017740,0.014721,0.414857,0.294169,0.519289,0.758632,0.816145,0.319103,0.000000,0.000000,0.104236,0.314322,YES
1.1.0,src/java/org/apache/avro/specific/SpecificRecordBase.java,0.261424,0.147375,0.974352,0.000000,1.265598,0.148287,0.202827,0.190343,0.083219,0.124177,0.117764,0.125116,0.173827,0.313222,0.655182,0.690603,0.319103,0.986843,0.327685,0.573296,1.257289,YES
1.1.0,src/java/org/apache/avro/specific/SpecificRequestor.java,0.292546,0.384813,2.435880,0.531930,1.265598,0.410640,0.219730,0.210842,0.260060,0.230614,0.147205,0.476756,0.294169,0.397847,0.758632,0.787829,0.372287,0.000000,0.000000,0.052118,0.314322,NO
1.1.0,src/java/org/apache/avro/util/Utf8.java,0.348566,0.139188,0.974352,0.000000,1.265598,0.136880,0.135218,0.175702,0.072817,0.088698,0.103044,0.408272,0.294169,0.613256,0.758632,0.829774,0.319103,0.657895,0.368646,0.573296,1.257289,NO
1.2.0,src/java/org/apache/avro/Protocol.java,1.593443,0.139188,0.487176,0.531930,1.265598,0.171100,0.253534,0.439254,0.135231,0.230614,0.382734,0.609774,0.294169,0.286227,0.758632,0.823782,0.975036,0.986843,1.310741,1.511417,1.571612,YES
1.2.0,src/java/org/apache/avro/Schema.java,3.996057,1.064376,0.487176,0.531930,1.265598,1.003788,1.487400,2.576958,0.478511,0.816017,1.354289,0.636114,0.294169,0.227498,0.758632,0.790526,1.489147,2.631581,3.932222,6.931673,5.343480,YES
1.2.0,src/java/org/apache/avro/file/DataFileReader.java,1.039473,0.245625,0.487176,0.531930,1.265598,0.216727,0.321143,0.556389,0.083219,0.141916,0.235529,0.472805,0.294169,0.443868,0.758632,0.822034,0.797757,0.986843,0.860174,0.833885,1.571612,NO
1.2.0,src/java/org/apache/avro/file/DataFileWriter.java,0.852741,0.204688,0.487176,1.063860,1.265598,0.102660,0.152120,0.263552,0.072817,0.124177,0.206088,0.482024,0.294169,0.402243,0.758632,0.818474,0.815485,0.328948,0.204803,0.208471,0.942967,NO
1.2.0,src/java/org/apache/avro/generic/GenericData.java,2.271902,0.106438,0.974352,0.531930,1.265598,0.148287,0.202827,0.190343,0.135231,0.212874,0.191367,0.611091,0.294169,0.305968,0.758632,0.784417,0.815485,3.947372,4.177986,3.491895,3.143224,YES
1.2.0,src/java/org/apache/avro/generic/GenericDatumReader.java,2.141189,0.057313,0.487176,0.531930,1.265598,0.057033,0.084511,0.146418,0.031207,0.053219,0.088323,0.669039,0.294169,0.251237,0.758632,0.778954,1.613242,1.644738,3.891261,1.302946,1.257289,YES
1.2.0,src/java/org/apache/avro/generic/GenericRequestor.java,0.186732,0.000000,0.000000,0.000000,0.000000,0.000000,0.000000,0.000000,0.000000,0.000000,0.000000,0.466220,0.294169,0.500213,0.758632,0.830315,0.319103,0.000000,0.000000,0.052118,0.314322,NO
1.2.0,src/java/org/apache/avro/io/BinaryData.java,0.971005,0.000000,0.000000,0.000000,0.000000,0.000000,0.000000,0.000000,0.000000,0.000000,0.000000,0.046095,0.066857,0.115398,0.482766,0.536952,0.567294,1.973686,1.638426,0.833885,1.571612,NO
1.2.0,src/java/org/apache/avro/io/BinaryDecoder.java,1.282224,0.000000,0.000000,0.000000,0.000000,0.000000,0.000000,0.000000,0.000000,0.000000,0.000000,0.147505,0.173827,0.276954,0.614952,0.686392,1.045948,0.986843,0.778252,0.156354,0.942967,NO
1.2.0,src/java/org/apache/avro/io/BinaryEncoder.java,1.095492,0.000000,0.000000,0.000000,0.000000,0.000000,0.000000,0.000000,0.000000,0.000000,0.000000,0.451733,0.294169,0.484670,0.758632,0.752011,0.691390,0.328948,0.204803,1.146592,0.942967,YES
1.2.0,src/java/org/apache/avro/io/BlockingBinaryEncoder.java,2.626692,0.000000,0.000000,0.531930,0.000000,0.000000,0.000000,0.000000,0.000000,0.000000,0.000000,0.144871,0.173827,0.272009,0.649435,0.723792,2.198264,1.315791,1.843229,1.042357,1.571612,YES
1.2.0,src/java/org/apache/avro/io/JsonDecoder.java,2.134965,0.000000,0.000000,0.000000,0.000000,0.000000,0.000000,0.000000,0.000000,0.000000,0.000000,0.126433,0.173827,0.316519,0.559395,0.622535,0.319103,1.644738,1.556504,0.156354,0.942967,YES
1.2.0,src/java/org/apache/avro/io/ParsingEncoder.java,0.224078,0.000000,0.000000,0.000000,0.000000,0.000000,0.000000,0.000000,0.000000,0.000000,0.000000,0.118531,0.173827,0.296737,0.559395,0.602702,0.425470,0.328948,0.122882,0.052118,0.314322,NO
1.2.0,src/java/org/apache/avro/io/ResolvingDecoder.java,0.697131,0.000000,0.000000,0.000000,0.000000,0.000000,0.000000,0.000000,0.000000,0.000000,0.000000,0.136969,0.173827,0.342896,0.611120,0.659710,1.382779,1.973686,0.778252,0.052118,0.314322,YES
1.2.0,src/java/org/apache/avro/io/parsing/JsonGrammarGenerator.java,0.373463,0.024563,0.487176,0.531930,1.265598,0.011407,0.016902,0.029284,0.010402,0.017740,0.029441,0.125116,0.173827,0.313222,0.559395,0.621784,0.620478,1.315791,0.655370,0.208471,0.314322,YES
1.2.0,src/java/org/apache/avro/io/parsing/Parser.java,0.535297,0.171938,0.487176,0.531930,1.265598,0.239540,0.354948,0.614956,0.218450,0.372530,0.618263,0.125116,0.173827,0.313222,0.559395,0.608465,1.187772,1.315791,0.450567,0.156354,0.314322,YES
1.2.0,src/java/org/apache/avro/io/parsing/ResolvingGrammarGenerator.java,1.531199,0.000000,0.000000,0.000000,0.000000,0.000000,0.000000,0.000000,0.000000,0.000000,0.000000,0.126433,0.173827,0.316519,0.559395,0.625409,1.187772,1.644738,2.580521,1.042357,1.885934,YES
1.2.0,src/java/org/apache/avro/io/parsing/SkipParser.java,0.267649,0.000000,0.000000,0.000000,0.000000,0.000000,0.000000,0.000000,0.000000,0.000000,0.000000,0.115897,0.173827,0.435214,0.559395,0.625137,0.762301,0.986843,0.122882,0.052118,0.314322,YES
1.2.0,src/java/org/apache/avro/io/parsing/Symbol.java,1.580995,0.008188,0.487176,0.531930,1.265598,0.000000,0.000000,0.000000,0.010402,0.017740,0.029441,0.125116,0.173827,0.313222,0.559395,0.625396,1.418235,0.986843,0.327685,0.677532,1.257289,YES
1.2.0,src/java/org/apache/avro/io/parsing/ValidatingGrammarGenerator.java,0.522849,0.000000,0.000000,0.000000,0.000000,0.000000,0.000000,0.000000,0.000000,0.000000,0.000000,0.126433,0.173827,0.316519,0.559395,0.624875,0.762301,1.315791,0.737292,0.312707,1.571612,YES
1.2.0,src/java/org/apache/avro/ipc/AvroRemoteException.java,0.093366,0.000000,0.000000,0.000000,0.000000,0.000000,0.000000,0.000000,0.000000,0.000000,0.000000,0.409589,0.294169,0.615234,0.758632,0.843195,0.319103,0.328948,0.040961,0.052118,0.314322,NO
1.2.0,src/java/org/apache/avro/ipc/ByteBufferInputStream.java,0.311219,0.000000,0.000000,0.000000,0.000000,0.000000,0.000000,0.000000,0.000000,0.000000,0.000000,0.409589,0.294169,0.439453,0.758632,0.844556,0.531838,0.657895,0.286725,0.312707,0.628645,NO
1.2.0,src/java/org/apache/avro/ipc/ByteBufferOutputStream.java,0.342341,0.000000,0.000000,0.000000,0.000000,0.000000,0.000000,0.000000,0.000000,0.000000,0.000000,0.400370,0.294169,0.601386,0.758632,0.839140,0.443198,0.328948,0.163843,0.156354,0.628645,NO
1.2.0,src/java/org/apache/avro/ipc/RPCContext.java,0.398361,0.294750,0.487176,0.000000,1.265598,0.205320,0.304241,0.527105,0.000000,0.000000,0.000000,0.036876,0.040114,0.138477,0.542154,0.583979,1.187772,0.328948,0.163843,0.104236,0.314322,NO
1.2.0,src/java/org/apache/avro/ipc/RPCPlugin.java,0.062244,0.065500,0.487176,0.000000,1.265598,0.045627,0.067609,0.117134,0.000000,0.000000,0.000000,0.036876,0.040114,0.138477,0.542154,0.595208,0.975036,0.000000,0.000000,0.364825,0.314322,NO
1.2.0,src/java/org/apache/avro/ipc/Requestor.java,1.039473,0.171938,0.974352,0.000000,1.265598,0.114067,0.135218,0.146418,0.010402,0.017740,0.014721,0.575532,0.294169,0.360205,0.758632,0.770991,0.620478,0.657895,0.655370,0.364825,0.628645,YES
1.2.0,src/java/org/apache/avro/ipc/Responder.java,0.908761,0.270188,0.974352,0.000000,1.265598,0.114067,0.135218,0.146418,0.135231,0.230614,0.191367,0.561045,0.294169,0.324128,0.758632,0.774930,0.585022,0.657895,0.614410,0.364825,0.314322,NO
1.2.0,src/java/org/apache/avro/ipc/SocketServer.java,0.460605,0.032750,0.487176,0.000000,1.265598,0.022813,0.033805,0.058567,0.000000,0.000000,0.000000,0.462269,0.294169,0.495974,0.758632,0.827239,0.319103,0.657895,0.245764,0.312707,1.257289,YES
1.2.0,src/java/org/apache/avro/ipc/SocketTransceiver.java,0.404585,0.131000,0.487176,0.000000,1.265598,0.102660,0.152120,0.263552,0.020805,0.035479,0.058882,0.428027,0.294169,0.535774,0.758632,0.821558,0.372287,0.657895,0.245764,0.104236,0.314322,NO
1.2.0,src/java/org/apache/avro/ipc/Transceiver.java,0.099590,0.000000,0.000000,0.000000,0.000000,0.000000,0.000000,0.000000,0.000000,0.000000,0.000000,0.408272,0.294169,0.613256,0.758632,0.837566,0.319103,0.000000,0.000000,0.052118,0.314322,NO
1.2.0,src/java/org/apache/avro/reflect/ReflectData.java,1.705482,0.736876,0.487176,0.531930,1.265598,0.798468,1.183159,2.049853,0.520120,0.886976,1.472054,0.615042,0.294169,0.329943,0.758632,0.766225,0.921853,4.276319,2.908206,1.980478,2.828901,YES
1.2.0,src/java/org/apache/avro/reflect/ReflectDatumReader.java,0.398361,0.253813,0.487176,1.063860,1.265598,0.079847,0.118316,0.204985,0.176841,0.301572,0.500498,0.559728,0.294169,0.350314,0.758632,0.805050,0.390015,0.328948,0.245764,0.052118,0.314322,YES
1.2.0,src/java/org/apache/avro/reflect/ReflectRequestor.java,0.454380,0.032750,0.487176,0.000000,1.265598,0.011407,0.016902,0.029284,0.020805,0.035479,0.058882,0.529437,0.294169,0.397627,0.758632,0.802180,0.372287,0.328948,0.040961,0.156354,0.942967,NO
1.2.0,src/java/org/apache/avro/reflect/ReflectResponder.java,0.404585,0.270188,0.487176,0.000000,1.265598,0.022813,0.033805,0.058567,0.301670,0.514446,0.853791,0.608457,0.294169,0.380812,0.758632,0.810196,0.372287,0.657895,0.245764,0.416943,0.942967,YES
1.2.0,src/java/org/apache/avro/specific/ProtocolTask.java,0.286322,0.262000,0.487176,0.000000,1.265598,0.034220,0.050707,0.087851,0.270463,0.461227,0.765468,0.416174,0.294169,0.520938,0.758632,0.808103,0.390015,0.657895,0.245764,0.364825,1.571612,NO
1.2.0,src/java/org/apache/avro/specific/SpecificCompiler.java,1.587219,2.669128,1.461528,1.063860,2.531197,1.984762,2.890288,1.698449,0.228853,0.372530,0.215901,0.628212,0.294169,0.248322,0.758632,0.733282,0.673662,1.315791,2.908206,1.094475,1.885934,YES
1.2.0,src/java/org/apache/avro/specific/SpecificData.java,0.398361,0.237438,0.487176,0.000000,1.265598,0.319387,0.473264,0.819941,0.280865,0.478967,0.794909,0.077703,0.072205,0.194527,0.478934,0.522707,0.372287,1.644738,0.450567,0.156354,0.628645,YES
1.2.0,src/java/org/apache/avro/specific/SpecificDatumWriter.java,0.093366,0.065500,0.487176,0.531930,1.265598,0.068440,0.101414,0.175702,0.041610,0.070958,0.117764,0.491243,0.294169,0.409936,0.758632,0.820693,0.319103,0.000000,0.000000,0.052118,0.314322,NO
1.2.0,src/java/org/apache/avro/specific/SpecificExceptionBase.java,0.093366,0.000000,0.000000,0.000000,0.000000,0.000000,0.000000,0.000000,0.000000,0.000000,0.000000,0.414857,0.294169,0.519289,0.758632,0.816145,0.319103,0.000000,0.000000,0.104236,0.314322,YES
1.2.0,src/java/org/apache/avro/specific/SpecificRecordBase.java,0.261424,0.000000,0.000000,0.000000,0.000000,0.000000,0.000000,0.000000,0.000000,0.000000,0.000000,0.125116,0.173827,0.313222,0.655182,0.690603,0.319103,0.986843,0.327685,0.677532,1.571612,YES
1.2.0,src/java/org/apache/avro/util/Utf8.java,0.348566,0.000000,0.000000,0.000000,0.000000,0.000000,0.000000,0.000000,0.000000,0.000000,0.000000,0.408272,0.294169,0.613256,0.758632,0.829774,0.319103,0.657895,0.368646,0.625414,1.257289,NO
1.3.0,lang/java/src/java/org/apache/avro/Schema.java,5.203588,5.813131,9.256346,3.191579,3.796795,5.828813,3.312845,0.787575,3.411989,2.589969,0.508246,1.390759,1.160631,0.261128,0.758632,0.670312,3.173301,2.960529,4.710474,7.452851,5.657802,NO
1.3.0,lang/java/src/java/org/apache/avro/ipc/ByteBufferOutputStream.java,0.342341,0.000000,0.487176,0.000000,1.265598,0.000000,0.000000,0.000000,0.000000,0.000000,0.000000,0.971951,1.160631,1.216620,0.758632,0.839140,0.443198,0.328948,0.163843,0.156354,0.628645,NO
1.3.0,lang/java/src/java/org/apache/avro/ipc/RPCContext.java,0.435707,0.065500,0.974352,0.000000,1.265598,0.091253,0.135218,0.117134,0.083219,0.141916,0.117764,0.615042,1.160631,1.154800,0.542154,0.571321,1.187772,0.328948,0.163843,0.104236,0.314322,YES
1.3.0,lang/java/src/java/org/apache/avro/ipc/AvroRemoteException.java,0.093366,0.000000,0.487176,0.000000,1.265598,0.000000,0.000000,0.000000,0.000000,0.000000,0.000000,0.981170,1.160631,1.228160,0.758632,0.843195,0.319103,0.328948,0.040961,0.052118,0.314322,NO
1.3.0,lang/java/src/java/org/apache/avro/ipc/Transceiver.java,0.105815,0.024563,0.974352,0.000000,1.265598,0.022813,0.033805,0.029284,0.010402,0.017740,0.014721,0.985121,1.160631,1.056947,0.758632,0.826695,0.319103,0.000000,0.000000,0.052118,0.314322,NO
1.3.0,lang/java/src/java/org/apache/avro/ipc/HttpTransceiver.java,0.497951,0.106438,1.461528,0.000000,1.265598,0.045627,0.067609,0.039045,0.072817,0.106437,0.068696,0.633480,1.160631,0.792946,0.425294,0.459752,0.390015,0.986843,0.245764,0.104236,0.628645,NO
1.3.0,lang/java/src/java/org/apache/avro/ipc/DatagramServer.java,0.280097,0.024563,0.974352,0.000000,1.265598,0.022813,0.033805,0.029284,0.010402,0.017740,0.014721,1.043069,1.160631,0.870427,0.758632,0.779080,0.336831,0.657895,0.122882,0.052118,0.314322,NO
1.3.0,lang/java/src/java/org/apache/avro/ipc/RPCPlugin.java,0.062244,0.000000,0.487176,0.000000,1.265598,0.000000,0.000000,0.000000,0.000000,0.000000,0.000000,0.608457,1.160631,1.523248,0.542154,0.595208,0.975036,0.000000,0.000000,0.364825,0.314322,NO
1.3.0,lang/java/src/java/org/apache/avro/ipc/Responder.java,0.921209,0.155563,2.435880,0.000000,1.265598,0.125473,0.067609,0.064424,0.052012,0.035479,0.029441,1.202427,1.160631,0.501705,0.758632,0.758887,0.585022,0.657895,0.614410,0.260589,0.314322,YES
1.3.0,lang/java/src/java/org/apache/avro/ipc/Requestor.java,1.039473,0.163750,1.948704,0.000000,1.265598,0.114067,0.084511,0.073209,0.041610,0.035479,0.029441,1.205061,1.160631,0.565654,0.758632,0.752642,0.620478,0.657895,0.655370,0.208471,0.314322,YES
1.3.0,lang/java/src/java/org/apache/avro/ipc/DatagramTransceiver.java,0.336117,0.024563,0.974352,0.000000,1.265598,0.022813,0.033805,0.029284,0.010402,0.017740,0.014721,0.600555,1.160631,1.503465,0.438704,0.480868,0.390015,0.657895,0.122882,0.104236,0.314322,NO
1.3.0,lang/java/src/java/org/apache/avro/ipc/SocketTransceiver.java,0.410810,0.049125,1.461528,0.000000,1.265598,0.045627,0.033805,0.039045,0.020805,0.017740,0.019627,1.012778,1.160631,0.845150,0.758632,0.809622,0.390015,0.657895,0.245764,0.104236,0.314322,NO
1.3.0,lang/java/src/java/org/apache/avro/ipc/ByteBufferInputStream.java,0.311219,0.000000,0.487176,0.000000,1.265598,0.000000,0.000000,0.000000,0.000000,0.000000,0.000000,0.981170,1.160631,0.921120,0.758632,0.844556,0.531838,0.657895,0.286725,0.312707,0.628645,NO
1.3.0,lang/java/src/java/org/apache/avro/ipc/SocketServer.java,0.460605,0.040938,1.461528,0.000000,1.265598,0.034220,0.033805,0.029284,0.010402,0.017740,0.009814,1.047020,1.160631,0.786352,0.758632,0.820177,0.336831,0.657895,0.245764,0.312707,1.257289,YES
1.3.0,lang/java/src/java/org/apache/avro/specific/SpecificDatumWriter.java,0.180507,0.212875,1.461528,0.531930,1.265598,0.250947,0.338045,0.214746,0.187243,0.319311,0.176646,1.106286,1.160631,0.692385,0.758632,0.759072,0.319103,0.000000,0.000000,0.052118,0.314322,NO
1.3.0,lang/java/src/java/org/apache/avro/specific/SpecificCompiler.java,2.091394,4.838817,6.820465,2.659649,2.531197,4.015151,3.059311,0.736274,1.653982,0.869236,0.334367,1.345981,1.160631,0.306328,0.758632,0.611588,0.921853,1.315791,3.072048,1.042357,1.257289,NO
1.3.0,lang/java/src/java/org/apache/avro/specific/SpecificExceptionBase.java,0.112039,0.090063,1.461528,1.063860,1.265598,0.079847,0.101414,0.068328,0.031207,0.053219,0.029441,1.015412,1.160631,0.847348,0.758632,0.776991,0.372287,0.328948,0.122882,0.104236,0.314322,NO
1.3.0,lang/java/src/java/org/apache/avro/specific/SpecificRecordBase.java,0.168058,0.393000,1.948704,1.595789,1.265598,0.171100,0.101414,0.109814,0.332877,0.443488,0.235529,0.729622,1.160631,0.782819,0.655182,0.566225,0.372287,0.328948,0.122882,0.677532,1.571612,NO
1.3.0,lang/java/src/java/org/apache/avro/specific/ProtocolTask.java,0.286322,0.000000,0.487176,0.000000,1.265598,0.000000,0.000000,0.000000,0.000000,0.000000,0.000000,0.987755,1.160631,1.059774,0.758632,0.808103,0.390015,0.657895,0.245764,0.364825,1.571612,NO
1.3.0,lang/java/src/java/org/apache/avro/specific/SpecificData.java,1.039473,2.333440,4.384585,2.127719,1.265598,2.292743,2.738168,0.654001,2.236517,2.465792,0.703315,0.754645,1.160631,0.472306,0.478934,0.401986,0.496382,4.276319,1.761308,0.260589,0.942967,NO
1.3.0,lang/java/src/java/org/apache/avro/specific/SpecificDatumReader.java,0.354790,0.532188,3.410233,1.595789,1.265598,0.615961,0.811309,0.225902,0.530523,0.816017,0.214499,1.197159,1.160631,0.499507,0.758632,0.782954,0.336831,0.328948,0.163843,0.052118,0.314322,NO
1.3.0,lang/java/src/java/org/apache/avro/io/BinaryEncoder.java,1.107941,0.032750,0.974352,0.531930,2.531197,0.034220,0.050707,0.043925,0.020805,0.035479,0.029441,1.028582,1.160631,0.858338,0.758632,0.749772,0.691390,0.328948,0.245764,1.146592,0.942967,NO
1.3.0,lang/java/src/java/org/apache/avro/io/ParsingEncoder.java,0.224078,0.000000,0.487176,0.000000,1.265598,0.000000,0.000000,0.000000,0.000000,0.000000,0.000000,0.690111,1.160631,1.295750,0.559395,0.602702,0.425470,0.328948,0.122882,0.052118,0.314322,NO
1.3.0,lang/java/src/java/org/apache/avro/io/BlockingBinaryEncoder.java,2.601794,0.221063,1.461528,1.063860,2.531197,0.114067,0.169023,0.097612,0.114426,0.159656,0.107951,0.754645,1.160631,0.809667,0.649435,0.706401,2.162808,1.315791,1.884190,1.042357,1.571612,NO
1.3.0,lang/java/src/java/org/apache/avro/io/parsing/Parser.java,0.609990,1.768502,2.923057,1.063860,2.531197,1.380208,0.574677,0.590553,0.499315,0.283832,0.235529,0.766498,1.160631,0.639632,0.559395,0.406679,1.400507,1.315791,0.532488,0.156354,0.314322,NO
1.3.0,lang/java/src/java/org/apache/avro/io/parsing/ValidatingGrammarGenerator.java,0.510400,0.163750,2.435880,0.531930,2.531197,0.102660,0.067609,0.052710,0.062414,0.035479,0.035329,0.777034,1.160631,0.729477,0.559395,0.577361,0.762301,1.315791,0.737292,0.312707,1.571612,NO
1.3.0,lang/java/src/java/org/apache/avro/io/parsing/SkipParser.java,0.273873,0.171938,2.923057,0.531930,2.531197,0.125473,0.050707,0.053687,0.031207,0.017740,0.014721,0.757279,1.160631,0.710931,0.559395,0.559118,0.762301,0.986843,0.122882,0.052118,0.314322,NO
1.3.0,lang/java/src/java/org/apache/avro/io/parsing/Symbol.java,2.228331,2.177877,4.871761,1.063860,2.531197,2.475250,2.805777,0.635454,2.330139,2.909280,0.659480,0.791521,1.160631,0.457279,0.559395,0.468793,2.180536,0.986843,0.655370,0.677532,1.257289,NO
1.3.0,lang/java/src/java/org/apache/avro/io/parsing/ResolvingGrammarGenerator.java,2.085170,1.653877,4.871761,1.595789,2.531197,1.779442,1.909956,0.456824,1.310703,1.951346,0.370958,0.807325,1.160631,0.466409,0.559395,0.473156,1.489147,1.644738,3.399734,1.042357,1.885934,YES
1.3.0,lang/java/src/java/org/apache/avro/io/parsing/JsonGrammarGenerator.java,0.361015,0.196500,2.435880,1.063860,2.531197,0.125473,0.067609,0.064424,0.062414,0.035479,0.035329,0.775717,1.160631,0.728241,0.559395,0.550218,0.620478,1.315791,0.655370,0.208471,0.314322,NO
1.3.0,lang/java/src/java/org/apache/avro/io/JsonDecoder.java,2.259453,0.712313,3.897409,1.063860,2.531197,0.650181,0.507068,0.208646,0.280865,0.319311,0.099364,0.812593,1.160631,0.554807,0.559395,0.563777,0.372287,1.644738,1.597465,0.156354,0.942967,NO
1.3.0,lang/java/src/java/org/apache/avro/io/ResolvingDecoder.java,0.765600,1.514689,5.358937,0.531930,2.531197,1.197701,0.828211,0.279525,0.634547,0.532185,0.163264,0.844201,1.160631,0.452877,0.611120,0.519189,1.613242,1.973686,0.860174,0.052118,0.314322,NO
1.3.0,lang/java/src/java/org/apache/avro/io/BinaryData.java,0.946107,0.499438,1.461528,0.000000,2.531197,0.319387,0.456361,0.273314,0.052012,0.053219,0.049068,0.675624,1.160631,0.845699,0.482766,0.485421,0.585022,1.973686,1.720347,0.833885,1.571612,NO
1.3.0,lang/java/src/java/org/apache/avro/io/BinaryDecoder.java,4.033403,8.285758,1.948704,0.000000,2.531197,9.661458,13.741545,6.200804,7.094440,11.938691,5.019703,0.757279,1.160631,0.710931,0.614952,0.296785,4.538352,2.960529,2.539560,0.156354,0.942967,NO
1.3.0,lang/java/src/java/org/apache/avro/generic/GenericDatumReader.java,1.462731,2.824690,4.871761,2.127719,3.796795,1.334582,1.064843,0.342618,1.674787,2.235178,0.474001,1.363102,1.160631,0.341247,0.758632,0.688804,1.489147,1.315791,1.966111,1.302946,1.257289,NO
1.3.0,lang/java/src/java/org/apache/avro/generic/GenericRequestor.java,0.180507,0.065500,1.461528,0.000000,1.265598,0.034220,0.050707,0.029284,0.083219,0.088698,0.078510,1.095749,1.160631,0.822949,0.758632,0.814809,0.319103,0.000000,0.000000,0.052118,0.314322,YES
1.3.0,lang/java/src/java/org/apache/avro/generic/GenericData.java,2.545775,1.694814,5.358937,3.191579,3.796795,1.460055,0.980332,0.340755,0.592937,0.727320,0.152558,1.301202,1.160631,0.375866,0.758632,0.700656,1.010492,3.947372,4.628553,3.648249,3.143224,NO
1.3.0,lang/java/src/java/org/apache/avro/util/Utf8.java,0.373463,0.040938,0.974352,0.000000,1.265598,0.057033,0.084511,0.073209,0.052012,0.088698,0.073603,0.983804,1.160631,1.055534,0.758632,0.817824,0.319103,0.657895,0.368646,0.625414,1.257289,YES
1.3.0,lang/java/src/java/org/apache/avro/file/DataFileWriter.java,1.580995,3.848129,4.384585,1.063860,2.531197,3.672951,1.419791,1.047702,1.976457,1.206287,0.621534,1.143162,1.160631,0.476977,0.758632,0.580989,1.489147,0.657895,0.696331,0.208471,0.942967,NO
1.3.0,lang/java/src/java/org/apache/avro/file/DataFileReader.java,0.722029,2.783753,2.923057,0.531930,1.265598,1.608342,1.115550,0.688165,1.269093,1.596556,0.598635,1.144479,1.160631,0.613962,0.758632,0.636965,0.602750,0.986843,0.368646,0.833885,1.571612,NO
1.3.0,lang/java/src/java/org/apache/avro/reflect/ReflectData.java,2.078946,6.165194,6.820465,2.659649,2.531197,4.619705,2.704363,0.847133,3.651244,2.448052,0.738130,1.356517,1.160631,0.363856,0.758632,0.580417,1.134588,3.618424,2.744363,1.980478,2.514579,YES
1.3.0,lang/java/src/java/org/apache/avro/reflect/ReflectRequestor.java,0.267649,0.425750,1.461528,0.000000,1.265598,0.091253,0.101414,0.078090,0.374487,0.638622,0.353293,1.144479,1.160631,0.661190,0.758632,0.740233,0.372287,0.000000,0.000000,0.156354,0.942967,NO
1.3.0,lang/java/src/java/org/apache/avro/reflect/ReflectResponder.java,0.136937,0.638626,1.948704,0.531930,1.265598,0.148287,0.152120,0.095172,0.540925,0.922455,0.382734,1.243254,1.160631,0.583582,0.758632,0.745376,0.319103,0.000000,0.000000,0.364825,0.942967,NO
1.3.0,lang/java/src/java/org/apache/avro/reflect/ReflectDatumReader.java,0.678458,1.580189,5.358937,2.127719,2.531197,1.357395,0.929625,0.316795,1.362715,0.975673,0.350616,1.269594,1.160631,0.414571,0.758632,0.674811,0.407743,0.657895,0.532488,0.104236,0.628645,NO
1.3.0,lang/java/src/java/org/apache/avro/Protocol.java,1.736604,0.450313,2.923057,1.063860,2.531197,0.501894,0.456361,0.214746,0.364084,0.408009,0.171740,1.252473,1.160631,0.427570,0.758632,0.798569,1.099132,0.986843,1.433623,1.511417,1.571612,YES
1.3.1,lang/java/src/java/org/apache/avro/Schema.java,5.203588,0.000000,0.000000,3.191579,0.000000,0.000000,0.000000,0.000000,0.000000,0.000000,0.000000,1.390759,1.160631,0.261128,0.758632,0.670312,3.173301,2.960529,4.710474,8.182501,5.343480,NO
1.3.1,lang/java/src/java/org/apache/avro/ipc/stats/Histogram.java,0.796722,0.000000,0.000000,0.000000,0.000000,0.000000,0.000000,0.000000,0.000000,0.000000,0.000000,0.587385,1.160631,2.205742,0.233720,0.261459,0.921853,0.657895,0.327685,0.312707,1.257289,NO
1.3.1,lang/java/src/java/org/apache/avro/ipc/stats/StatsPlugin.java,0.466829,0.000000,0.000000,0.000000,0.000000,0.000000,0.000000,0.000000,0.000000,0.000000,0.000000,0.587385,1.160631,2.205742,0.233720,0.261459,0.620478,0.328948,0.081921,0.052118,0.314322,NO
1.3.1,lang/java/src/java/org/apache/avro/ipc/stats/Stopwatch.java,0.236527,0.000000,0.000000,0.000000,0.000000,0.000000,0.000000,0.000000,0.000000,0.000000,0.000000,0.587385,1.160631,2.205742,0.233720,0.261459,0.496382,0.657895,0.163843,0.208471,0.628645,NO
1.3.1,lang/java/src/java/org/apache/avro/ipc/ByteBufferOutputStream.java,0.342341,0.000000,0.000000,0.000000,0.000000,0.000000,0.000000,0.000000,0.000000,0.000000,0.000000,0.971951,1.160631,1.216620,0.758632,0.839140,0.443198,0.328948,0.163843,0.156354,0.628645,NO
1.3.1,lang/java/src/java/org/apache/avro/ipc/RPCContext.java,0.435707,0.049125,0.487176,0.531930,1.265598,0.034220,0.050707,0.087851,0.000000,0.000000,0.000000,0.630846,1.160631,0.947579,0.542154,0.558489,1.187772,0.328948,0.163843,0.104236,0.314322,NO
1.3.1,lang/java/src/java/org/apache/avro/ipc/AvroRemoteException.java,0.093366,0.000000,0.000000,0.000000,0.000000,0.000000,0.000000,0.000000,0.000000,0.000000,0.000000,0.981170,1.160631,1.228160,0.758632,0.843195,0.319103,0.328948,0.040961,0.052118,0.314322,NO
1.3.1,lang/java/src/java/org/apache/avro/ipc/Transceiver.java,0.105815,0.000000,0.000000,0.000000,0.000000,0.000000,0.000000,0.000000,0.000000,0.000000,0.000000,0.985121,1.160631,1.056947,0.758632,0.826695,0.319103,0.000000,0.000000,0.104236,0.628645,NO
1.3.1,lang/java/src/java/org/apache/avro/ipc/HttpTransceiver.java,0.497951,0.000000,0.000000,0.000000,0.000000,0.000000,0.000000,0.000000,0.000000,0.000000,0.000000,0.633480,1.160631,0.792946,0.425294,0.459752,0.390015,0.986843,0.245764,0.052118,0.314322,NO
1.3.1,lang/java/src/java/org/apache/avro/ipc/DatagramServer.java,0.280097,0.000000,0.000000,0.000000,0.000000,0.000000,0.000000,0.000000,0.000000,0.000000,0.000000,1.043069,1.160631,0.870427,0.758632,0.779080,0.336831,0.657895,0.122882,0.052118,0.314322,NO
1.3.1,lang/java/src/java/org/apache/avro/ipc/RPCPlugin.java,0.062244,0.000000,0.000000,0.000000,0.000000,0.000000,0.000000,0.000000,0.000000,0.000000,0.000000,0.608457,1.160631,1.523248,0.542154,0.595208,0.975036,0.000000,0.000000,0.364825,0.314322,NO
1.3.1,lang/java/src/java/org/apache/avro/ipc/Responder.java,0.890087,0.155563,0.487176,0.531930,1.265598,0.079847,0.118316,0.204985,0.052012,0.088698,0.147205,1.218231,1.160631,0.481546,0.758632,0.740656,0.585022,0.657895,0.573449,0.260589,0.314322,NO
1.3.1,lang/java/src/java/org/apache/avro/ipc/Requestor.java,1.039473,0.049125,0.487176,0.531930,1.265598,0.034220,0.050707,0.087851,0.000000,0.000000,0.000000,1.220865,1.160631,0.539362,0.758632,0.746563,0.620478,0.657895,0.655370,0.208471,0.314322,YES
1.3.1,lang/java/src/java/org/apache/avro/ipc/DatagramTransceiver.java,0.336117,0.000000,0.000000,0.000000,0.000000,0.000000,0.000000,0.000000,0.000000,0.000000,0.000000,0.600555,1.160631,1.503465,0.438704,0.480868,0.390015,0.657895,0.122882,0.104236,0.314322,NO
1.3.1,lang/java/src/java/org/apache/avro/ipc/SocketTransceiver.java,0.410810,0.000000,0.000000,0.000000,0.000000,0.000000,0.000000,0.000000,0.000000,0.000000,0.000000,1.012778,1.160631,0.845150,0.758632,0.809622,0.390015,0.657895,0.245764,0.104236,0.314322,NO
1.3.1,lang/java/src/java/org/apache/avro/ipc/ByteBufferInputStream.java,0.311219,0.000000,0.000000,0.000000,0.000000,0.000000,0.000000,0.000000,0.000000,0.000000,0.000000,0.981170,1.160631,0.921120,0.758632,0.844556,0.531838,0.657895,0.286725,0.312707,0.628645,NO
1.3.1,lang/java/src/java/org/apache/avro/ipc/SocketServer.java,0.460605,0.000000,0.000000,0.000000,0.000000,0.000000,0.000000,0.000000,0.000000,0.000000,0.000000,1.047020,1.160631,0.786352,0.758632,0.820177,0.336831,0.657895,0.245764,0.312707,1.257289,YES
1.3.1,lang/java/src/java/org/apache/avro/specific/SpecificDatumWriter.java,0.180507,0.000000,0.000000,0.531930,0.000000,0.000000,0.000000,0.000000,0.000000,0.000000,0.000000,1.106286,1.160631,0.692385,0.758632,0.759072,0.319103,0.000000,0.000000,0.052118,0.314322,NO
1.3.1,lang/java/src/java/org/apache/avro/specific/SpecificCompiler.java,2.091394,0.000000,0.000000,2.659649,0.000000,0.000000,0.000000,0.000000,0.000000,0.000000,0.000000,1.345981,1.160631,0.306328,0.758632,0.611588,0.921853,1.315791,3.072048,0.625414,0.628645,NO
1.3.1,lang/java/src/java/org/apache/avro/specific/SpecificExceptionBase.java,0.112039,0.000000,0.000000,1.063860,0.000000,0.000000,0.000000,0.000000,0.000000,0.000000,0.000000,1.015412,1.160631,0.847348,0.758632,0.776991,0.372287,0.328948,0.122882,0.312707,0.942967,NO
1.3.1,lang/java/src/java/org/apache/avro/specific/SpecificRecordBase.java,0.168058,0.000000,0.000000,1.595789,0.000000,0.000000,0.000000,0.000000,0.000000,0.000000,0.000000,0.729622,1.160631,0.782819,0.655182,0.566225,0.372287,0.328948,0.122882,0.208471,0.628645,NO
1.3.1,lang/java/src/java/org/apache/avro/specific/ProtocolTask.java,0.286322,0.000000,0.000000,0.000000,0.000000,0.000000,0.000000,0.000000,0.000000,0.000000,0.000000,0.987755,1.160631,1.059774,0.758632,0.808103,0.390015,0.657895,0.245764,0.364825,1.571612,NO
1.3.1,lang/java/src/java/org/apache/avro/specific/SpecificRequestor.java,0.448156,0.057313,0.487176,1.063860,1.265598,0.057033,0.084511,0.146418,0.031207,0.053219,0.088323,1.169502,1.160631,0.585560,0.758632,0.685032,0.372287,0.328948,0.081921,0.104236,0.628645,NO
1.3.1,lang/java/src/java/org/apache/avro/specific/SpecificData.java,1.045697,0.024563,0.487176,2.127719,1.265598,0.022813,0.033805,0.058567,0.010402,0.017740,0.029441,0.761230,1.160631,0.439779,0.478934,0.400064,0.496382,3.947372,1.720347,1.198710,2.514579,NO
1.3.1,lang/java/src/java/org/apache/avro/specific/SpecificDatumReader.java,0.354790,0.000000,0.000000,1.595789,0.000000,0.000000,0.000000,0.000000,0.000000,0.000000,0.000000,1.197159,1.160631,0.499507,0.758632,0.782954,0.336831,0.328948,0.163843,0.104236,0.628645,NO
1.3.1,lang/java/src/java/org/apache/avro/specific/SpecificResponder.java,0.435707,0.090063,0.487176,1.595789,1.265598,0.034220,0.050707,0.087851,0.052012,0.088698,0.147205,1.135260,1.160631,0.655864,0.758632,0.635568,0.319103,0.328948,0.204803,0.364825,0.942967,NO
1.3.1,lang/java/src/java/org/apache/avro/io/BinaryEncoder.java,1.107941,0.000000,0.000000,0.531930,0.000000,0.000000,0.000000,0.000000,0.000000,0.000000,0.000000,1.028582,1.160631,0.858338,0.758632,0.749772,0.691390,0.328948,0.245764,1.146592,0.942967,NO
1.3.1,lang/java/src/java/org/apache/avro/io/ParsingEncoder.java,0.224078,0.000000,0.000000,0.000000,0.000000,0.000000,0.000000,0.000000,0.000000,0.000000,0.000000,0.690111,1.160631,1.295750,0.559395,0.602702,0.425470,0.328948,0.122882,0.052118,0.314322,NO
1.3.1,lang/java/src/java/org/apache/avro/io/BlockingBinaryEncoder.java,2.601794,0.000000,0.000000,1.063860,0.000000,0.000000,0.000000,0.000000,0.000000,0.000000,0.000000,0.754645,1.160631,0.809667,0.649435,0.706401,2.162808,1.315791,1.884190,0.990239,1.571612,NO
1.3.1,lang/java/src/java/org/apache/avro/io/parsing/Parser.java,0.609990,0.000000,0.000000,1.063860,0.000000,0.000000,0.000000,0.000000,0.000000,0.000000,0.000000,0.766498,1.160631,0.639632,0.559395,0.406679,1.400507,1.315791,0.532488,0.156354,0.314322,NO
1.3.1,lang/java/src/java/org/apache/avro/io/parsing/ValidatingGrammarGenerator.java,0.510400,0.000000,0.000000,0.531930,0.000000,0.000000,0.000000,0.000000,0.000000,0.000000,0.000000,0.777034,1.160631,0.729477,0.559395,0.577361,0.762301,1.315791,0.737292,0.312707,1.571612,NO
1.3.1,lang/java/src/java/org/apache/avro/io/parsing/SkipParser.java,0.273873,0.000000,0.000000,0.531930,0.000000,0.000000,0.000000,0.000000,0.000000,0.000000,0.000000,0.757279,1.160631,0.710931,0.559395,0.559118,0.762301,0.986843,0.122882,0.104236,0.628645,NO
1.3.1,lang/java/src/java/org/apache/avro/io/parsing/Symbol.java,2.228331,0.000000,0.000000,1.063860,0.000000,0.000000,0.000000,0.000000,0.000000,0.000000,0.000000,0.791521,1.160631,0.457279,0.559395,0.468793,2.180536,0.986843,0.655370,0.729650,1.257289,NO
1.3.1,lang/java/src/java/org/apache/avro/io/parsing/ResolvingGrammarGenerator.java,2.085170,0.000000,0.000000,1.595789,0.000000,0.000000,0.000000,0.000000,0.000000,0.000000,0.000000,0.807325,1.160631,0.466409,0.559395,0.473156,1.489147,1.644738,3.399734,1.146592,1.885934,YES
1.3.1,lang/java/src/java/org/apache/avro/io/parsing/JsonGrammarGenerator.java,0.361015,0.000000,0.000000,1.063860,0.000000,0.000000,0.000000,0.000000,0.000000,0.000000,0.000000,0.775717,1.160631,0.728241,0.559395,0.550218,0.620478,1.315791,0.655370,0.208471,0.314322,NO
1.3.1,lang/java/src/java/org/apache/avro/io/DecoderFactory.java,0.473053,0.000000,0.000000,0.000000,0.000000,0.000000,0.000000,0.000000,0.000000,0.000000,0.000000,0.031608,0.064182,0.237389,0.153259,0.171448,2.535095,0.986843,0.327685,0.208471,0.942967,NO
1.3.1,lang/java/src/java/org/apache/avro/io/JsonDecoder.java,2.259453,0.000000,0.000000,1.063860,0.000000,0.000000,0.000000,0.000000,0.000000,0.000000,0.000000,0.812593,1.160631,0.554807,0.559395,0.563777,0.372287,1.644738,1.597465,0.208471,0.942967,NO
1.3.1,lang/java/src/java/org/apache/avro/io/BinaryData.java,0.946107,0.000000,0.000000,0.000000,0.000000,0.000000,0.000000,0.000000,0.000000,0.000000,0.000000,0.675624,1.160631,0.845699,0.482766,0.485421,0.585022,1.973686,1.720347,0.886003,1.571612,NO
1.3.1,lang/java/src/java/org/apache/avro/io/BinaryDecoder.java,4.033403,0.000000,0.000000,0.000000,0.000000,0.000000,0.000000,0.000000,0.000000,0.000000,0.000000,0.757279,1.160631,0.710931,0.614952,0.296785,4.538352,2.960529,2.539560,2.605892,2.828901,NO
1.3.1,lang/java/src/java/org/apache/avro/generic/GenericDatumReader.java,1.462731,0.000000,0.000000,2.127719,0.000000,0.000000,0.000000,0.000000,0.000000,0.000000,0.000000,1.363102,1.160631,0.341247,0.758632,0.688804,1.489147,1.315791,1.966111,0.416943,0.942967,NO
1.3.1,lang/java/src/java/org/apache/avro/generic/GenericDatumWriter.java,0.778049,0.000000,0.000000,2.127719,0.000000,0.000000,0.000000,0.000000,0.000000,0.000000,0.000000,1.183989,1.160631,0.494011,0.758632,0.782301,0.833213,0.657895,0.696331,0.052118,0.314322,NO
1.3.1,lang/java/src/java/org/apache/avro/generic/GenericData.java,2.545775,0.000000,0.000000,3.191579,0.000000,0.000000,0.000000,0.000000,0.000000,0.000000,0.000000,1.301202,1.160631,0.375866,0.758632,0.700656,1.010492,3.947372,4.628553,3.960956,2.828901,NO
1.3.1,lang/java/src/java/org/apache/avro/tool/JsonToBinaryFragmentTool.java,0.323668,0.000000,0.000000,0.000000,0.000000,0.000000,0.000000,0.000000,0.000000,0.000000,0.000000,0.588702,1.160631,2.210688,0.250962,0.280747,0.319103,0.328948,0.122882,0.104236,0.628645,NO
1.3.1,lang/java/src/java/org/apache/avro/tool/RpcSendTool.java,0.566419,0.000000,0.000000,0.000000,0.000000,0.000000,0.000000,0.000000,0.000000,0.000000,0.000000,0.601872,1.160631,1.506762,0.249046,0.252930,0.354559,0.657895,0.163843,0.052118,0.314322,NO
1.3.1,lang/java/src/java/org/apache/avro/tool/GenAvroTool.java,0.286322,0.000000,0.000000,0.000000,0.000000,0.000000,0.000000,0.000000,0.000000,0.000000,0.000000,0.612408,1.160631,1.533139,0.249046,0.277907,0.372287,0.328948,0.122882,0.260589,0.942967,NO
1.3.1,lang/java/src/java/org/apache/avro/tool/RpcReceiveTool.java,0.840292,0.000000,0.000000,0.000000,0.000000,0.000000,0.000000,0.000000,0.000000,0.000000,0.000000,0.601872,1.160631,1.506762,0.249046,0.257173,0.407743,0.657895,0.368646,0.156354,0.942967,NO
1.3.1,lang/java/src/java/org/apache/avro/tool/Main.java,0.379688,0.000000,0.000000,0.000000,0.000000,0.000000,0.000000,0.000000,0.000000,0.000000,0.000000,0.676941,1.160631,0.508409,0.373569,0.354830,0.425470,0.657895,0.245764,0.052118,0.314322,NO
1.3.1,lang/java/src/java/org/apache/avro/tool/Util.java,0.224078,0.000000,0.000000,0.000000,0.000000,0.000000,0.000000,0.000000,0.000000,0.000000,0.000000,1.035167,1.160631,0.777450,0.758632,0.619059,0.514110,0.328948,0.040961,0.156354,0.942967,NO
1.3.1,lang/java/src/java/org/apache/avro/tool/BinaryFragmentToJsonTool.java,0.385912,0.000000,0.000000,0.000000,0.000000,0.000000,0.000000,0.000000,0.000000,0.000000,0.000000,0.620310,1.160631,1.552921,0.250962,0.274606,0.319103,0.328948,0.122882,0.104236,0.628645,NO
1.3.1,lang/java/src/java/org/apache/avro/tool/DataFileWriteTool.java,0.429483,0.000000,0.000000,0.000000,0.000000,0.000000,0.000000,0.000000,0.000000,0.000000,0.000000,0.625578,1.160631,1.174582,0.250962,0.269228,0.319103,0.657895,0.163843,0.104236,0.628645,NO
1.3.1,lang/java/src/java/org/apache/avro/util/Utf8.java,0.385912,0.016375,0.487176,0.531930,1.265598,0.022813,0.033805,0.058567,0.020805,0.035479,0.058882,0.999608,1.160631,0.938429,0.758632,0.812732,0.319103,0.657895,0.368646,0.625414,1.257289,NO
1.3.1,lang/java/src/java/org/apache/avro/file/DeflateCodec.java,0.622439,0.000000,0.000000,0.000000,0.000000,0.000000,0.000000,0.000000,0.000000,0.000000,0.000000,0.088239,0.064182,0.132542,0.206900,0.205546,0.549566,0.657895,0.409606,0.312707,1.257289,YES
1.3.1,lang/java/src/java/org/apache/avro/file/DataFileWriter.java,1.580995,0.000000,0.000000,1.063860,0.000000,0.000000,0.000000,0.000000,0.000000,0.000000,0.000000,1.143162,1.160631,0.476977,0.758632,0.580989,1.489147,0.657895,0.696331,0.469061,0.942967,YES
1.3.1,lang/java/src/java/org/apache/avro/file/CodecFactory.java,0.224078,0.000000,0.000000,0.000000,0.000000,0.000000,0.000000,0.000000,0.000000,0.000000,0.000000,0.032925,0.042788,0.123640,0.206900,0.226718,0.496382,0.328948,0.040961,0.104236,0.314322,NO
1.3.1,lang/java/src/java/org/apache/avro/file/NullCodec.java,0.217854,0.000000,0.000000,0.000000,0.000000,0.000000,0.000000,0.000000,0.000000,0.000000,0.000000,1.077311,1.160631,0.622386,0.758632,0.514721,0.336831,0.328948,0.040961,0.156354,0.942967,NO
1.3.1,lang/java/src/java/org/apache/avro/file/DataFileReader.java,0.722029,0.000000,0.000000,0.531930,0.000000,0.000000,0.000000,0.000000,0.000000,0.000000,0.000000,1.144479,1.160631,0.613962,0.758632,0.636965,0.602750,0.986843,0.368646,0.521178,2.514579,NO
1.3.1,lang/java/src/java/org/apache/avro/file/DataFileStream.java,1.176409,0.024563,0.487176,0.531930,1.265598,0.022813,0.033805,0.058567,0.010402,0.017740,0.029441,0.670356,1.160631,0.629329,0.249046,0.229395,1.028220,0.986843,1.024016,0.625414,1.257289,YES
1.3.1,lang/java/src/java/org/apache/avro/reflect/InduceSchemaTool.java,0.304995,0.000000,0.000000,0.000000,0.000000,0.000000,0.000000,0.000000,0.000000,0.000000,0.000000,0.607140,1.160631,0.759975,0.327591,0.355459,0.354559,0.986843,0.204803,0.052118,0.314322,NO
1.3.1,lang/java/src/java/org/apache/avro/reflect/ReflectData.java,2.122516,0.196500,0.487176,2.659649,1.265598,0.182507,0.270436,0.468538,0.083219,0.141916,0.235529,1.363102,1.160631,0.353014,0.758632,0.574229,1.187772,3.618424,2.826284,2.293185,3.457546,YES
1.3.1,lang/java/src/java/org/apache/avro/reflect/ReflectDatumReader.java,0.678458,0.000000,0.000000,2.127719,0.000000,0.000000,0.000000,0.000000,0.000000,0.000000,0.000000,1.269594,1.160631,0.414571,0.758632,0.674811,0.407743,0.657895,0.532488,0.573296,1.257289,NO
1.3.1,lang/java/src/java/org/apache/avro/reflect/ReflectDatumWriter.java,0.541522,0.000000,0.000000,2.659649,0.000000,0.000000,0.000000,0.000000,0.000000,0.000000,0.000000,1.323592,1.160631,0.414195,0.758632,0.664412,0.425470,0.328948,0.245764,0.416943,0.942967,NO
1.3.1,lang/java/src/java/org/apache/avro/Protocol.java,1.736604,0.000000,0.000000,1.063860,0.000000,0.000000,0.000000,0.000000,0.000000,0.000000,0.000000,1.252473,1.160631,0.427570,0.758632,0.798569,1.099132,0.986843,1.433623,1.563535,1.257289,YES
1.3.2,lang/java/src/java/org/apache/avro/Schema.java,5.203588,0.000000,0.000000,3.191579,0.000000,0.000000,0.000000,0.000000,0.000000,0.000000,0.000000,1.390759,1.160631,0.261128,0.758632,0.670312,3.173301,2.960529,4.710474,8.182501,5.343480,YES
1.3.2,lang/java/src/java/org/apache/avro/ipc/stats/Histogram.java,0.796722,0.000000,0.000000,0.000000,0.000000,0.000000,0.000000,0.000000,0.000000,0.000000,0.000000,0.587385,1.160631,2.205742,0.233720,0.261459,0.921853,0.657895,0.327685,0.312707,1.257289,NO
1.3.2,lang/java/src/java/org/apache/avro/ipc/stats/StatsPlugin.java,0.466829,0.000000,0.000000,0.000000,0.000000,0.000000,0.000000,0.000000,0.000000,0.000000,0.000000,0.587385,1.160631,2.205742,0.233720,0.261459,0.620478,0.328948,0.081921,0.052118,0.314322,NO
1.3.2,lang/java/src/java/org/apache/avro/ipc/stats/Stopwatch.java,0.236527,0.000000,0.000000,0.000000,0.000000,0.000000,0.000000,0.000000,0.000000,0.000000,0.000000,0.587385,1.160631,2.205742,0.233720,0.261459,0.496382,0.657895,0.163843,0.208471,0.628645,NO
1.3.2,lang/java/src/java/org/apache/avro/ipc/ByteBufferOutputStream.java,0.342341,0.000000,0.000000,0.000000,0.000000,0.000000,0.000000,0.000000,0.000000,0.000000,0.000000,0.971951,1.160631,1.216620,0.758632,0.839140,0.443198,0.328948,0.163843,0.156354,0.628645,NO
1.3.2,lang/java/src/java/org/apache/avro/ipc/RPCContext.java,0.435707,0.000000,0.000000,0.531930,0.000000,0.000000,0.000000,0.000000,0.000000,0.000000,0.000000,0.630846,1.160631,0.947579,0.542154,0.558489,1.187772,0.328948,0.163843,0.104236,0.314322,YES
1.3.2,lang/java/src/java/org/apache/avro/ipc/AvroRemoteException.java,0.093366,0.000000,0.000000,0.000000,0.000000,0.000000,0.000000,0.000000,0.000000,0.000000,0.000000,0.981170,1.160631,1.228160,0.758632,0.843195,0.319103,0.328948,0.040961,0.052118,0.314322,NO
1.3.2,lang/java/src/java/org/apache/avro/ipc/Transceiver.java,0.105815,0.000000,0.000000,0.000000,0.000000,0.000000,0.000000,0.000000,0.000000,0.000000,0.000000,0.985121,1.160631,1.056947,0.758632,0.826695,0.319103,0.000000,0.000000,0.104236,0.628645,NO
1.3.2,lang/java/src/java/org/apache/avro/ipc/HttpTransceiver.java,0.497951,0.000000,0.000000,0.000000,0.000000,0.000000,0.000000,0.000000,0.000000,0.000000,0.000000,0.633480,1.160631,0.792946,0.425294,0.459752,0.390015,0.986843,0.245764,0.052118,0.314322,NO
1.3.2,lang/java/src/java/org/apache/avro/ipc/DatagramServer.java,0.280097,0.000000,0.000000,0.000000,0.000000,0.000000,0.000000,0.000000,0.000000,0.000000,0.000000,1.043069,1.160631,0.870427,0.758632,0.779080,0.336831,0.657895,0.122882,0.052118,0.314322,NO
1.3.2,lang/java/src/java/org/apache/avro/ipc/RPCPlugin.java,0.062244,0.000000,0.000000,0.000000,0.000000,0.000000,0.000000,0.000000,0.000000,0.000000,0.000000,0.608457,1.160631,1.523248,0.542154,0.595208,0.975036,0.000000,0.000000,0.364825,0.314322,NO
1.3.2,lang/java/src/java/org/apache/avro/ipc/Responder.java,0.890087,0.000000,0.000000,0.531930,0.000000,0.000000,0.000000,0.000000,0.000000,0.000000,0.000000,1.218231,1.160631,0.481546,0.758632,0.740656,0.585022,0.657895,0.573449,0.260589,0.314322,YES
1.3.2,lang/java/src/java/org/apache/avro/ipc/Requestor.java,1.039473,0.000000,0.000000,0.531930,0.000000,0.000000,0.000000,0.000000,0.000000,0.000000,0.000000,1.220865,1.160631,0.539362,0.758632,0.746563,0.620478,0.657895,0.655370,0.208471,0.314322,YES
1.3.2,lang/java/src/java/org/apache/avro/ipc/DatagramTransceiver.java,0.336117,0.000000,0.000000,0.000000,0.000000,0.000000,0.000000,0.000000,0.000000,0.000000,0.000000,0.600555,1.160631,1.503465,0.438704,0.480868,0.390015,0.657895,0.122882,0.104236,0.314322,NO
1.3.2,lang/java/src/java/org/apache/avro/ipc/SocketTransceiver.java,0.410810,0.000000,0.000000,0.000000,0.000000,0.000000,0.000000,0.000000,0.000000,0.000000,0.000000,1.012778,1.160631,0.845150,0.758632,0.809622,0.390015,0.657895,0.245764,0.104236,0.314322,NO
1.3.2,lang/java/src/java/org/apache/avro/ipc/ByteBufferInputStream.java,0.311219,0.000000,0.000000,0.000000,0.000000,0.000000,0.000000,0.000000,0.000000,0.000000,0.000000,0.981170,1.160631,0.921120,0.758632,0.844556,0.531838,0.657895,0.286725,0.312707,0.628645,NO
1.3.2,lang/java/src/java/org/apache/avro/ipc/SocketServer.java,0.460605,0.000000,0.000000,0.000000,0.000000,0.000000,0.000000,0.000000,0.000000,0.000000,0.000000,1.047020,1.160631,0.786352,0.758632,0.820177,0.336831,0.657895,0.245764,0.312707,1.257289,YES
1.3.2,lang/java/src/java/org/apache/avro/specific/SpecificDatumWriter.java,0.180507,0.000000,0.000000,0.531930,0.000000,0.000000,0.000000,0.000000,0.000000,0.000000,0.000000,1.106286,1.160631,0.692385,0.758632,0.759072,0.319103,0.000000,0.000000,0.052118,0.314322,NO
1.3.2,lang/java/src/java/org/apache/avro/specific/SpecificCompiler.java,2.091394,0.000000,0.000000,2.659649,0.000000,0.000000,0.000000,0.000000,0.000000,0.000000,0.000000,1.345981,1.160631,0.306328,0.758632,0.611588,0.921853,1.315791,3.072048,0.625414,0.628645,NO
1.3.2,lang/java/src/java/org/apache/avro/specific/SpecificExceptionBase.java,0.112039,0.000000,0.000000,1.063860,0.000000,0.000000,0.000000,0.000000,0.000000,0.000000,0.000000,1.015412,1.160631,0.847348,0.758632,0.776991,0.372287,0.328948,0.122882,0.312707,0.942967,NO
1.3.2,lang/java/src/java/org/apache/avro/specific/SpecificRecordBase.java,0.168058,0.000000,0.000000,1.595789,0.000000,0.000000,0.000000,0.000000,0.000000,0.000000,0.000000,0.729622,1.160631,0.782819,0.655182,0.566225,0.372287,0.328948,0.122882,0.208471,0.628645,NO
1.3.2,lang/java/src/java/org/apache/avro/specific/ProtocolTask.java,0.286322,0.000000,0.000000,0.000000,0.000000,0.000000,0.000000,0.000000,0.000000,0.000000,0.000000,0.987755,1.160631,1.059774,0.758632,0.808103,0.390015,0.657895,0.245764,0.364825,1.571612,NO
1.3.2,lang/java/src/java/org/apache/avro/specific/SpecificRequestor.java,0.448156,0.000000,0.000000,1.063860,0.000000,0.000000,0.000000,0.000000,0.000000,0.000000,0.000000,1.169502,1.160631,0.585560,0.758632,0.685032,0.372287,0.328948,0.081921,0.156354,0.628645,YES
1.3.2,lang/java/src/java/org/apache/avro/specific/SpecificData.java,1.045697,0.000000,0.000000,2.127719,0.000000,0.000000,0.000000,0.000000,0.000000,0.000000,0.000000,0.761230,1.160631,0.439779,0.478934,0.400064,0.496382,3.947372,1.720347,1.094475,2.200256,NO
1.3.2,lang/java/src/java/org/apache/avro/specific/SpecificDatumReader.java,0.354790,0.000000,0.000000,1.595789,0.000000,0.000000,0.000000,0.000000,0.000000,0.000000,0.000000,1.197159,1.160631,0.499507,0.758632,0.782954,0.336831,0.328948,0.163843,0.104236,0.628645,NO
1.3.2,lang/java/src/java/org/apache/avro/specific/SpecificResponder.java,0.435707,0.000000,0.000000,1.595789,0.000000,0.000000,0.000000,0.000000,0.000000,0.000000,0.000000,1.135260,1.160631,0.655864,0.758632,0.635568,0.319103,0.328948,0.204803,0.260589,0.942967,NO
1.3.2,lang/java/src/java/org/apache/avro/io/BinaryEncoder.java,1.107941,0.000000,0.000000,0.531930,0.000000,0.000000,0.000000,0.000000,0.000000,0.000000,0.000000,1.028582,1.160631,0.858338,0.758632,0.749772,0.691390,0.328948,0.245764,1.146592,0.942967,NO
1.3.2,lang/java/src/java/org/apache/avro/io/ParsingEncoder.java,0.224078,0.000000,0.000000,0.000000,0.000000,0.000000,0.000000,0.000000,0.000000,0.000000,0.000000,0.690111,1.160631,1.295750,0.559395,0.602702,0.425470,0.328948,0.122882,0.052118,0.314322,NO
1.3.2,lang/java/src/java/org/apache/avro/io/BlockingBinaryEncoder.java,2.601794,0.000000,0.000000,1.063860,0.000000,0.000000,0.000000,0.000000,0.000000,0.000000,0.000000,0.754645,1.160631,0.809667,0.649435,0.706401,2.162808,1.315791,1.884190,0.990239,1.571612,NO
1.3.2,lang/java/src/java/org/apache/avro/io/parsing/Parser.java,0.609990,0.000000,0.000000,1.063860,0.000000,0.000000,0.000000,0.000000,0.000000,0.000000,0.000000,0.766498,1.160631,0.639632,0.559395,0.406679,1.400507,1.315791,0.532488,0.156354,0.314322,NO
1.3.2,lang/java/src/java/org/apache/avro/io/parsing/ValidatingGrammarGenerator.java,0.510400,0.000000,0.000000,0.531930,0.000000,0.000000,0.000000,0.000000,0.000000,0.000000,0.000000,0.777034,1.160631,0.729477,0.559395,0.577361,0.762301,1.315791,0.737292,0.312707,1.571612,NO
1.3.2,lang/java/src/java/org/apache/avro/io/parsing/SkipParser.java,0.273873,0.000000,0.000000,0.531930,0.000000,0.000000,0.000000,0.000000,0.000000,0.000000,0.000000,0.757279,1.160631,0.710931,0.559395,0.559118,0.762301,0.986843,0.122882,0.104236,0.628645,NO
1.3.2,lang/java/src/java/org/apache/avro/io/parsing/Symbol.java,2.228331,0.000000,0.000000,1.063860,0.000000,0.000000,0.000000,0.000000,0.000000,0.000000,0.000000,0.791521,1.160631,0.457279,0.559395,0.468793,2.180536,0.986843,0.655370,0.729650,1.257289,NO
1.3.2,lang/java/src/java/org/apache/avro/io/parsing/ResolvingGrammarGenerator.java,2.085170,0.000000,0.000000,1.595789,0.000000,0.000000,0.000000,0.000000,0.000000,0.000000,0.000000,0.807325,1.160631,0.466409,0.559395,0.473156,1.489147,1.644738,3.399734,1.146592,1.885934,YES
1.3.2,lang/java/src/java/org/apache/avro/io/parsing/JsonGrammarGenerator.java,0.361015,0.000000,0.000000,1.063860,0.000000,0.000000,0.000000,0.000000,0.000000,0.000000,0.000000,0.775717,1.160631,0.728241,0.559395,0.550218,0.620478,1.315791,0.655370,0.208471,0.314322,NO
1.3.2,lang/java/src/java/org/apache/avro/io/DecoderFactory.java,0.473053,0.000000,0.000000,0.000000,0.000000,0.000000,0.000000,0.000000,0.000000,0.000000,0.000000,0.031608,0.064182,0.237389,0.153259,0.171448,2.535095,0.986843,0.327685,0.208471,0.942967,NO
1.3.2,lang/java/src/java/org/apache/avro/io/JsonDecoder.java,2.259453,0.000000,0.000000,1.063860,0.000000,0.000000,0.000000,0.000000,0.000000,0.000000,0.000000,0.812593,1.160631,0.554807,0.559395,0.563777,0.372287,1.644738,1.597465,0.208471,0.942967,NO
1.3.2,lang/java/src/java/org/apache/avro/io/BinaryData.java,0.946107,0.000000,0.000000,0.000000,0.000000,0.000000,0.000000,0.000000,0.000000,0.000000,0.000000,0.675624,1.160631,0.845699,0.482766,0.485421,0.585022,1.973686,1.720347,0.886003,1.571612,NO
1.3.2,lang/java/src/java/org/apache/avro/io/BinaryDecoder.java,4.033403,0.000000,0.000000,0.000000,0.000000,0.000000,0.000000,0.000000,0.000000,0.000000,0.000000,0.757279,1.160631,0.710931,0.614952,0.296785,4.538352,2.960529,2.539560,2.605892,2.828901,NO
1.3.2,lang/java/src/java/org/apache/avro/generic/GenericDatumReader.java,1.462731,0.000000,0.000000,2.127719,0.000000,0.000000,0.000000,0.000000,0.000000,0.000000,0.000000,1.363102,1.160631,0.341247,0.758632,0.688804,1.489147,1.315791,1.966111,0.416943,0.942967,YES
1.3.2,lang/java/src/java/org/apache/avro/generic/GenericRequestor.java,0.261424,0.000000,0.000000,0.531930,0.000000,0.000000,0.000000,0.000000,0.000000,0.000000,0.000000,1.111554,1.160631,0.758926,0.758632,0.772991,0.319103,0.657895,0.122882,0.208471,0.628645,YES
1.3.2,lang/java/src/java/org/apache/avro/generic/GenericDatumWriter.java,0.778049,0.000000,0.000000,2.127719,0.000000,0.000000,0.000000,0.000000,0.000000,0.000000,0.000000,1.183989,1.160631,0.494011,0.758632,0.782301,0.833213,0.657895,0.696331,0.052118,0.314322,NO
1.3.2,lang/java/src/java/org/apache/avro/generic/GenericResponder.java,0.180507,0.000000,0.000000,0.531930,0.000000,0.000000,0.000000,0.000000,0.000000,0.000000,0.000000,1.043069,1.160631,0.870427,0.758632,0.803686,0.319103,0.328948,0.040961,0.052118,0.314322,NO
1.3.2,lang/java/src/java/org/apache/avro/generic/GenericData.java,2.545775,0.000000,0.000000,3.191579,0.000000,0.000000,0.000000,0.000000,0.000000,0.000000,0.000000,1.301202,1.160631,0.375866,0.758632,0.700656,1.010492,3.947372,4.628553,3.960956,2.828901,NO
1.3.2,lang/java/src/java/org/apache/avro/tool/JsonToBinaryFragmentTool.java,0.323668,0.000000,0.000000,0.000000,0.000000,0.000000,0.000000,0.000000,0.000000,0.000000,0.000000,0.588702,1.160631,2.210688,0.250962,0.280747,0.319103,0.328948,0.122882,0.104236,0.628645,YES
1.3.2,lang/java/src/java/org/apache/avro/tool/RpcSendTool.java,0.566419,0.000000,0.000000,0.000000,0.000000,0.000000,0.000000,0.000000,0.000000,0.000000,0.000000,0.601872,1.160631,1.506762,0.249046,0.252930,0.354559,0.657895,0.163843,0.052118,0.314322,NO
1.3.2,lang/java/src/java/org/apache/avro/tool/GenAvroTool.java,0.286322,0.000000,0.000000,0.000000,0.000000,0.000000,0.000000,0.000000,0.000000,0.000000,0.000000,0.612408,1.160631,1.533139,0.249046,0.277907,0.372287,0.328948,0.122882,0.260589,0.942967,NO
1.3.2,lang/java/src/java/org/apache/avro/tool/RpcReceiveTool.java,0.840292,0.000000,0.000000,0.000000,0.000000,0.000000,0.000000,0.000000,0.000000,0.000000,0.000000,0.601872,1.160631,1.506762,0.249046,0.257173,0.407743,0.657895,0.368646,0.156354,0.942967,NO
1.3.2,lang/java/src/java/org/apache/avro/tool/Main.java,0.379688,0.000000,0.000000,0.000000,0.000000,0.000000,0.000000,0.000000,0.000000,0.000000,0.000000,0.676941,1.160631,0.508409,0.373569,0.354830,0.425470,0.657895,0.245764,0.052118,0.314322,NO
1.3.2,lang/java/src/java/org/apache/avro/tool/Util.java,0.224078,0.000000,0.000000,0.000000,0.000000,0.000000,0.000000,0.000000,0.000000,0.000000,0.000000,1.035167,1.160631,0.777450,0.758632,0.619059,0.514110,0.328948,0.040961,0.156354,0.942967,NO
1.3.2,lang/java/src/java/org/apache/avro/tool/BinaryFragmentToJsonTool.java,0.385912,0.000000,0.000000,0.000000,0.000000,0.000000,0.000000,0.000000,0.000000,0.000000,0.000000,0.620310,1.160631,1.552921,0.250962,0.274606,0.319103,0.328948,0.122882,0.104236,0.628645,NO
1.3.2,lang/java/src/java/org/apache/avro/tool/DataFileWriteTool.java,0.429483,0.000000,0.000000,0.000000,0.000000,0.000000,0.000000,0.000000,0.000000,0.000000,0.000000,0.625578,1.160631,1.174582,0.250962,0.269228,0.319103,0.657895,0.163843,0.104236,0.628645,NO
1.3.2,lang/java/src/java/org/apache/avro/util/Utf8.java,0.385912,0.000000,0.000000,0.531930,0.000000,0.000000,0.000000,0.000000,0.000000,0.000000,0.000000,0.999608,1.160631,0.938429,0.758632,0.812732,0.319103,0.657895,0.368646,0.625414,1.257289,NO
1.3.2,lang/java/src/java/org/apache/avro/file/DeflateCodec.java,0.622439,0.000000,0.000000,0.000000,0.000000,0.000000,0.000000,0.000000,0.000000,0.000000,0.000000,0.088239,0.064182,0.132542,0.206900,0.205546,0.549566,0.657895,0.409606,0.312707,1.257289,YES
1.3.2,lang/java/src/java/org/apache/avro/file/DataFileWriter.java,1.580995,0.000000,0.000000,1.063860,0.000000,0.000000,0.000000,0.000000,0.000000,0.000000,0.000000,1.143162,1.160631,0.476977,0.758632,0.580989,1.489147,0.657895,0.696331,0.469061,0.942967,YES
1.3.2,lang/java/src/java/org/apache/avro/file/CodecFactory.java,0.224078,0.000000,0.000000,0.000000,0.000000,0.000000,0.000000,0.000000,0.000000,0.000000,0.000000,0.032925,0.042788,0.123640,0.206900,0.226718,0.496382,0.328948,0.040961,0.104236,0.314322,NO
1.3.2,lang/java/src/java/org/apache/avro/file/NullCodec.java,0.217854,0.000000,0.000000,0.000000,0.000000,0.000000,0.000000,0.000000,0.000000,0.000000,0.000000,1.077311,1.160631,0.622386,0.758632,0.514721,0.336831,0.328948,0.040961,0.156354,0.942967,NO
1.3.2,lang/java/src/java/org/apache/avro/file/DataFileReader.java,0.722029,0.000000,0.000000,0.531930,0.000000,0.000000,0.000000,0.000000,0.000000,0.000000,0.000000,1.144479,1.160631,0.613962,0.758632,0.636965,0.602750,0.986843,0.368646,0.521178,2.514579,YES
1.3.2,lang/java/src/java/org/apache/avro/file/DataFileStream.java,1.176409,0.000000,0.000000,0.531930,0.000000,0.000000,0.000000,0.000000,0.000000,0.000000,0.000000,0.670356,1.160631,0.629329,0.249046,0.229395,1.028220,0.986843,1.024016,0.677532,1.257289,YES
1.3.2,lang/java/src/java/org/apache/avro/reflect/InduceSchemaTool.java,0.304995,0.000000,0.000000,0.000000,0.000000,0.000000,0.000000,0.000000,0.000000,0.000000,0.000000,0.607140,1.160631,0.759975,0.327591,0.355459,0.354559,0.986843,0.204803,0.052118,0.314322,NO
1.3.2,lang/java/src/java/org/apache/avro/reflect/ReflectData.java,2.153638,0.081875,0.487176,3.191579,1.265598,0.091253,0.135218,0.234269,0.062414,0.106437,0.176646,1.369687,1.160631,0.342896,0.758632,0.571437,1.205500,3.618424,2.867245,2.397421,3.457546,YES
1.3.2,lang/java/src/java/org/apache/avro/reflect/ReflectDatumReader.java,0.678458,0.000000,0.000000,2.127719,0.000000,0.000000,0.000000,0.000000,0.000000,0.000000,0.000000,1.269594,1.160631,0.414571,0.758632,0.674811,0.407743,0.657895,0.532488,0.573296,1.257289,NO
1.3.2,lang/java/src/java/org/apache/avro/reflect/ReflectDatumWriter.java,0.541522,0.000000,0.000000,2.659649,0.000000,0.000000,0.000000,0.000000,0.000000,0.000000,0.000000,1.323592,1.160631,0.414195,0.758632,0.664412,0.425470,0.328948,0.245764,0.416943,0.942967,NO
1.3.2,lang/java/src/java/org/apache/avro/Protocol.java,1.736604,0.000000,0.000000,1.063860,0.000000,0.000000,0.000000,0.000000,0.000000,0.000000,0.000000,1.252473,1.160631,0.427570,0.758632,0.798569,1.099132,0.986843,1.433623,1.563535,1.257289,YES
1.3.3,lang/java/src/java/org/apache/avro/generic/GenericDatumWriter.java,0.778049,0.000000,0.000000,2.127719,0.000000,0.000000,0.000000,0.000000,0.000000,0.000000,0.000000,1.183989,1.160631,0.494011,0.816104,0.846594,0.833213,0.657895,0.696331,0.052118,0.314322,NO
1.3.3,lang/java/src/java/org/apache/avro/generic/GenericData.java,2.545775,0.000000,0.000000,3.191579,0.000000,0.000000,0.000000,0.000000,0.000000,0.000000,0.000000,1.301202,1.160631,0.375866,0.816104,0.764949,1.010492,3.947372,4.628553,3.960956,2.828901,NO
1.3.3,lang/java/src/java/org/apache/avro/generic/GenericDatumReader.java,1.481404,0.040938,0.487176,2.127719,1.265598,0.045627,0.067609,0.117134,0.031207,0.053219,0.088323,1.368370,1.160631,0.331515,0.816104,0.751356,1.489147,1.315791,1.966111,0.416943,0.942967,YES
1.3.3,lang/java/src/java/org/apache/avro/generic/GenericResponder.java,0.180507,0.000000,0.000000,0.531930,0.000000,0.000000,0.000000,0.000000,0.000000,0.000000,0.000000,1.043069,1.160631,0.870427,0.816104,0.867979,0.319103,0.328948,0.040961,0.052118,0.314322,NO
1.3.3,lang/java/src/java/org/apache/avro/generic/GenericRequestor.java,0.261424,0.000000,0.000000,0.531930,0.000000,0.000000,0.000000,0.000000,0.000000,0.000000,0.000000,1.111554,1.160631,0.758926,0.816104,0.837284,0.319103,0.657895,0.122882,0.208471,0.628645,YES
1.3.3,lang/java/src/java/org/apache/avro/file/CodecFactory.java,0.224078,0.000000,0.000000,0.000000,0.000000,0.000000,0.000000,0.000000,0.000000,0.000000,0.000000,0.032925,0.042788,0.123640,0.264372,0.291011,0.496382,0.328948,0.040961,0.104236,0.314322,NO
1.3.3,lang/java/src/java/org/apache/avro/file/NullCodec.java,0.217854,0.000000,0.000000,0.000000,0.000000,0.000000,0.000000,0.000000,0.000000,0.000000,0.000000,1.077311,1.160631,0.622386,0.816104,0.579014,0.336831,0.328948,0.040961,0.156354,0.942967,NO
1.3.3,lang/java/src/java/org/apache/avro/file/DeflateCodec.java,0.622439,0.000000,0.000000,0.000000,0.000000,0.000000,0.000000,0.000000,0.000000,0.000000,0.000000,0.088239,0.064182,0.132542,0.264372,0.269839,0.549566,0.657895,0.409606,0.312707,1.257289,YES
1.3.3,lang/java/src/java/org/apache/avro/file/DataFileReader.java,0.722029,0.000000,0.000000,0.531930,0.000000,0.000000,0.000000,0.000000,0.000000,0.000000,0.000000,1.144479,1.160631,0.613962,0.816104,0.701258,0.602750,0.986843,0.368646,0.521178,2.514579,YES
1.3.3,lang/java/src/java/org/apache/avro/file/DataFileWriter.java,1.568546,0.073688,0.487176,1.063860,1.265598,0.034220,0.050707,0.087851,0.031207,0.053219,0.088323,1.145796,1.160631,0.452914,0.816104,0.640131,1.471419,0.657895,0.696331,0.469061,0.942967,YES
1.3.3,lang/java/src/java/org/apache/avro/file/DataFileStream.java,1.176409,0.000000,0.000000,0.531930,0.000000,0.000000,0.000000,0.000000,0.000000,0.000000,0.000000,0.670356,1.160631,0.629329,0.306518,0.293688,1.028220,0.986843,1.024016,0.677532,1.257289,YES
1.3.3,lang/java/src/java/org/apache/avro/io/BinaryEncoder.java,1.107941,0.000000,0.000000,0.531930,0.000000,0.000000,0.000000,0.000000,0.000000,0.000000,0.000000,1.028582,1.160631,0.858338,0.816104,0.814065,0.691390,0.328948,0.245764,1.146592,0.942967,NO
1.3.3,lang/java/src/java/org/apache/avro/io/DecoderFactory.java,0.473053,0.000000,0.000000,0.000000,0.000000,0.000000,0.000000,0.000000,0.000000,0.000000,0.000000,0.031608,0.064182,0.237389,0.210731,0.235742,2.535095,0.986843,0.327685,0.208471,0.942967,NO
1.3.3,lang/java/src/java/org/apache/avro/io/BinaryData.java,0.946107,0.000000,0.000000,0.000000,0.000000,0.000000,0.000000,0.000000,0.000000,0.000000,0.000000,0.675624,1.160631,0.845699,0.540238,0.549714,0.585022,1.973686,1.720347,0.886003,1.571612,NO
1.3.3,lang/java/src/java/org/apache/avro/io/BlockingBinaryEncoder.java,2.601794,0.000000,0.000000,1.063860,0.000000,0.000000,0.000000,0.000000,0.000000,0.000000,0.000000,0.754645,1.160631,0.809667,0.706907,0.770695,2.162808,1.315791,1.884190,0.990239,1.571612,NO
1.3.3,lang/java/src/java/org/apache/avro/io/JsonDecoder.java,2.259453,0.000000,0.000000,1.063860,0.000000,0.000000,0.000000,0.000000,0.000000,0.000000,0.000000,0.812593,1.160631,0.554807,0.616868,0.628070,0.372287,1.644738,1.597465,0.208471,0.942967,NO
1.3.3,lang/java/src/java/org/apache/avro/io/ParsingEncoder.java,0.224078,0.000000,0.000000,0.000000,0.000000,0.000000,0.000000,0.000000,0.000000,0.000000,0.000000,0.690111,1.160631,1.295750,0.616868,0.666996,0.425470,0.328948,0.122882,0.052118,0.314322,NO
1.3.3,lang/java/src/java/org/apache/avro/io/parsing/SkipParser.java,0.273873,0.000000,0.000000,0.531930,0.000000,0.000000,0.000000,0.000000,0.000000,0.000000,0.000000,0.757279,1.160631,0.710931,0.616868,0.623411,0.762301,0.986843,0.122882,0.104236,0.628645,NO
1.3.3,lang/java/src/java/org/apache/avro/io/parsing/ValidatingGrammarGenerator.java,0.510400,0.000000,0.000000,0.531930,0.000000,0.000000,0.000000,0.000000,0.000000,0.000000,0.000000,0.777034,1.160631,0.729477,0.616868,0.641654,0.762301,1.315791,0.737292,0.312707,1.571612,NO
1.3.3,lang/java/src/java/org/apache/avro/io/parsing/ResolvingGrammarGenerator.java,2.085170,0.000000,0.000000,1.595789,0.000000,0.000000,0.000000,0.000000,0.000000,0.000000,0.000000,0.807325,1.160631,0.466409,0.616868,0.537449,1.489147,1.644738,3.399734,1.146592,1.885934,YES
1.3.3,lang/java/src/java/org/apache/avro/io/parsing/Parser.java,0.609990,0.000000,0.000000,1.063860,0.000000,0.000000,0.000000,0.000000,0.000000,0.000000,0.000000,0.766498,1.160631,0.639632,0.616868,0.470972,1.400507,1.315791,0.532488,0.156354,0.314322,NO
1.3.3,lang/java/src/java/org/apache/avro/io/parsing/JsonGrammarGenerator.java,0.361015,0.000000,0.000000,1.063860,0.000000,0.000000,0.000000,0.000000,0.000000,0.000000,0.000000,0.775717,1.160631,0.728241,0.616868,0.614511,0.620478,1.315791,0.655370,0.208471,0.314322,NO
1.3.3,lang/java/src/java/org/apache/avro/io/parsing/Symbol.java,2.228331,0.000000,0.000000,1.063860,0.000000,0.000000,0.000000,0.000000,0.000000,0.000000,0.000000,0.791521,1.160631,0.457279,0.616868,0.533086,2.180536,0.986843,0.655370,0.729650,1.257289,NO
1.3.3,lang/java/src/java/org/apache/avro/io/BinaryDecoder.java,4.033403,0.000000,0.000000,0.000000,0.000000,0.000000,0.000000,0.000000,0.000000,0.000000,0.000000,0.757279,1.160631,0.710931,0.672424,0.361079,4.538352,2.960529,2.539560,2.605892,2.828901,NO
1.3.3,lang/java/src/java/org/apache/avro/tool/RpcReceiveTool.java,0.840292,0.000000,0.000000,0.000000,0.000000,0.000000,0.000000,0.000000,0.000000,0.000000,0.000000,0.601872,1.160631,1.506762,0.306518,0.321466,0.407743,0.657895,0.368646,0.156354,0.942967,NO
1.3.3,lang/java/src/java/org/apache/avro/tool/JsonToBinaryFragmentTool.java,0.323668,0.000000,0.000000,0.000000,0.000000,0.000000,0.000000,0.000000,0.000000,0.000000,0.000000,0.588702,1.160631,2.210688,0.308434,0.345040,0.319103,0.328948,0.122882,0.104236,0.628645,YES
1.3.3,lang/java/src/java/org/apache/avro/tool/Main.java,0.379688,0.000000,0.000000,0.000000,0.000000,0.000000,0.000000,0.000000,0.000000,0.000000,0.000000,0.676941,1.160631,0.508409,0.431041,0.419123,0.425470,0.657895,0.245764,0.052118,0.314322,NO
1.3.3,lang/java/src/java/org/apache/avro/tool/Util.java,0.224078,0.000000,0.000000,0.000000,0.000000,0.000000,0.000000,0.000000,0.000000,0.000000,0.000000,1.035167,1.160631,0.777450,0.816104,0.683353,0.514110,0.328948,0.040961,0.156354,0.942967,NO
1.3.3,lang/java/src/java/org/apache/avro/tool/RpcSendTool.java,0.566419,0.000000,0.000000,0.000000,0.000000,0.000000,0.000000,0.000000,0.000000,0.000000,0.000000,0.601872,1.160631,1.506762,0.306518,0.317223,0.354559,0.657895,0.163843,0.052118,0.314322,NO
1.3.3,lang/java/src/java/org/apache/avro/tool/BinaryFragmentToJsonTool.java,0.385912,0.000000,0.000000,0.000000,0.000000,0.000000,0.000000,0.000000,0.000000,0.000000,0.000000,0.620310,1.160631,1.552921,0.308434,0.338900,0.319103,0.328948,0.122882,0.104236,0.628645,NO
1.3.3,lang/java/src/java/org/apache/avro/tool/GenAvroTool.java,0.286322,0.000000,0.000000,0.000000,0.000000,0.000000,0.000000,0.000000,0.000000,0.000000,0.000000,0.612408,1.160631,1.533139,0.306518,0.342200,0.372287,0.328948,0.122882,0.260589,0.942967,NO
1.3.3,lang/java/src/java/org/apache/avro/tool/DataFileWriteTool.java,0.429483,0.000000,0.000000,0.000000,0.000000,0.000000,0.000000,0.000000,0.000000,0.000000,0.000000,0.625578,1.160631,1.174582,0.308434,0.333521,0.319103,0.657895,0.163843,0.104236,0.628645,NO
1.3.3,lang/java/src/java/org/apache/avro/reflect/ReflectDatumReader.java,0.678458,0.000000,0.000000,2.127719,0.000000,0.000000,0.000000,0.000000,0.000000,0.000000,0.000000,1.269594,1.160631,0.414571,0.816104,0.739104,0.407743,0.657895,0.532488,0.573296,1.257289,NO
1.3.3,lang/java/src/java/org/apache/avro/reflect/InduceSchemaTool.java,0.304995,0.000000,0.000000,0.000000,0.000000,0.000000,0.000000,0.000000,0.000000,0.000000,0.000000,0.607140,1.160631,0.759975,0.385063,0.419752,0.354559,0.986843,0.204803,0.052118,0.314322,NO
1.3.3,lang/java/src/java/org/apache/avro/reflect/ReflectDatumWriter.java,0.541522,0.000000,0.000000,2.659649,0.000000,0.000000,0.000000,0.000000,0.000000,0.000000,0.000000,1.323592,1.160631,0.414195,0.816104,0.728705,0.425470,0.328948,0.245764,0.416943,0.942967,YES
1.3.3,lang/java/src/java/org/apache/avro/reflect/ReflectData.java,2.178536,0.081875,0.487176,3.191579,1.265598,0.079847,0.118316,0.204985,0.041610,0.070958,0.117764,1.373638,1.160631,0.332792,0.816104,0.632079,1.205500,3.618424,2.908206,2.449539,3.457546,YES
1.3.3,lang/java/src/java/org/apache/avro/ipc/RPCPlugin.java,0.062244,0.000000,0.000000,0.000000,0.000000,0.000000,0.000000,0.000000,0.000000,0.000000,0.000000,0.608457,1.160631,1.523248,0.599626,0.659501,0.975036,0.000000,0.000000,0.364825,0.314322,NO
1.3.3,lang/java/src/java/org/apache/avro/ipc/Responder.java,0.890087,0.000000,0.000000,0.531930,0.000000,0.000000,0.000000,0.000000,0.000000,0.000000,0.000000,1.218231,1.160631,0.481546,0.816104,0.804949,0.585022,0.657895,0.573449,0.260589,0.314322,YES
1.3.3,lang/java/src/java/org/apache/avro/ipc/ByteBufferInputStream.java,0.311219,0.000000,0.000000,0.000000,0.000000,0.000000,0.000000,0.000000,0.000000,0.000000,0.000000,0.981170,1.160631,0.921120,0.816104,0.908849,0.531838,0.657895,0.286725,0.312707,0.628645,NO
1.3.3,lang/java/src/java/org/apache/avro/ipc/RPCContext.java,0.435707,0.000000,0.000000,0.531930,0.000000,0.000000,0.000000,0.000000,0.000000,0.000000,0.000000,0.630846,1.160631,0.947579,0.599626,0.622782,1.187772,0.328948,0.163843,0.104236,0.314322,YES
1.3.3,lang/java/src/java/org/apache/avro/ipc/Requestor.java,1.039473,0.000000,0.000000,0.531930,0.000000,0.000000,0.000000,0.000000,0.000000,0.000000,0.000000,1.220865,1.160631,0.539362,0.816104,0.810856,0.620478,0.657895,0.655370,0.208471,0.314322,YES
1.3.3,lang/java/src/java/org/apache/avro/ipc/DatagramServer.java,0.280097,0.000000,0.000000,0.000000,0.000000,0.000000,0.000000,0.000000,0.000000,0.000000,0.000000,1.043069,1.160631,0.870427,0.816104,0.843374,0.336831,0.657895,0.122882,0.052118,0.314322,NO
1.3.3,lang/java/src/java/org/apache/avro/ipc/ByteBufferOutputStream.java,0.342341,0.000000,0.000000,0.000000,0.000000,0.000000,0.000000,0.000000,0.000000,0.000000,0.000000,0.971951,1.160631,1.216620,0.816104,0.903433,0.443198,0.328948,0.163843,0.156354,0.628645,NO
1.3.3,lang/java/src/java/org/apache/avro/ipc/AvroRemoteException.java,0.093366,0.000000,0.000000,0.000000,0.000000,0.000000,0.000000,0.000000,0.000000,0.000000,0.000000,0.981170,1.160631,1.228160,0.816104,0.907488,0.319103,0.328948,0.040961,0.052118,0.314322,NO
1.3.3,lang/java/src/java/org/apache/avro/ipc/SocketTransceiver.java,0.410810,0.000000,0.000000,0.000000,0.000000,0.000000,0.000000,0.000000,0.000000,0.000000,0.000000,1.012778,1.160631,0.845150,0.816104,0.873915,0.390015,0.657895,0.245764,0.104236,0.314322,NO
1.3.3,lang/java/src/java/org/apache/avro/ipc/HttpTransceiver.java,0.497951,0.000000,0.000000,0.000000,0.000000,0.000000,0.000000,0.000000,0.000000,0.000000,0.000000,0.633480,1.160631,0.792946,0.482766,0.524045,0.390015,0.986843,0.245764,0.052118,0.314322,NO
1.3.3,lang/java/src/java/org/apache/avro/ipc/stats/Histogram.java,0.796722,0.000000,0.000000,0.000000,0.000000,0.000000,0.000000,0.000000,0.000000,0.000000,0.000000,0.587385,1.160631,2.205742,0.291192,0.325752,0.921853,0.657895,0.327685,0.312707,1.257289,NO
1.3.3,lang/java/src/java/org/apache/avro/ipc/stats/StatsPlugin.java,0.466829,0.000000,0.000000,0.000000,0.000000,0.000000,0.000000,0.000000,0.000000,0.000000,0.000000,0.587385,1.160631,2.205742,0.291192,0.325752,0.620478,0.328948,0.081921,0.052118,0.314322,NO
1.3.3,lang/java/src/java/org/apache/avro/ipc/stats/Stopwatch.java,0.236527,0.000000,0.000000,0.000000,0.000000,0.000000,0.000000,0.000000,0.000000,0.000000,0.000000,0.587385,1.160631,2.205742,0.291192,0.325752,0.496382,0.657895,0.163843,0.208471,0.628645,NO
1.3.3,lang/java/src/java/org/apache/avro/ipc/Transceiver.java,0.105815,0.000000,0.000000,0.000000,0.000000,0.000000,0.000000,0.000000,0.000000,0.000000,0.000000,0.985121,1.160631,1.056947,0.816104,0.890988,0.319103,0.000000,0.000000,0.104236,0.628645,NO
1.3.3,lang/java/src/java/org/apache/avro/ipc/DatagramTransceiver.java,0.336117,0.000000,0.000000,0.000000,0.000000,0.000000,0.000000,0.000000,0.000000,0.000000,0.000000,0.600555,1.160631,1.503465,0.496176,0.545162,0.390015,0.657895,0.122882,0.104236,0.314322,NO
1.3.3,lang/java/src/java/org/apache/avro/ipc/SocketServer.java,0.460605,0.000000,0.000000,0.000000,0.000000,0.000000,0.000000,0.000000,0.000000,0.000000,0.000000,1.047020,1.160631,0.786352,0.816104,0.884471,0.336831,0.657895,0.245764,0.312707,1.257289,YES
1.3.3,lang/java/src/java/org/apache/avro/Protocol.java,1.736604,0.000000,0.000000,1.063860,0.000000,0.000000,0.000000,0.000000,0.000000,0.000000,0.000000,1.252473,1.160631,0.427570,0.816104,0.862862,1.099132,0.986843,1.433623,1.563535,1.257289,YES
1.3.3,lang/java/src/java/org/apache/avro/specific/ProtocolTask.java,0.286322,0.000000,0.000000,0.000000,0.000000,0.000000,0.000000,0.000000,0.000000,0.000000,0.000000,0.987755,1.160631,1.059774,0.816104,0.872396,0.390015,0.657895,0.245764,0.364825,1.571612,NO
1.3.3,lang/java/src/java/org/apache/avro/specific/SpecificRequestor.java,0.448156,0.000000,0.000000,1.063860,0.000000,0.000000,0.000000,0.000000,0.000000,0.000000,0.000000,1.169502,1.160631,0.585560,0.816104,0.749325,0.372287,0.328948,0.081921,0.156354,0.628645,YES
1.3.3,lang/java/src/java/org/apache/avro/specific/SpecificExceptionBase.java,0.112039,0.000000,0.000000,1.063860,0.000000,0.000000,0.000000,0.000000,0.000000,0.000000,0.000000,1.015412,1.160631,0.847348,0.816104,0.841284,0.372287,0.328948,0.122882,0.312707,0.942967,NO
1.3.3,lang/java/src/java/org/apache/avro/specific/SpecificRecordBase.java,0.168058,0.000000,0.000000,1.595789,0.000000,0.000000,0.000000,0.000000,0.000000,0.000000,0.000000,0.729622,1.160631,0.782819,0.712654,0.630518,0.372287,0.328948,0.122882,0.208471,0.628645,NO
1.3.3,lang/java/src/java/org/apache/avro/specific/SpecificCompiler.java,2.091394,0.000000,0.000000,2.659649,0.000000,0.000000,0.000000,0.000000,0.000000,0.000000,0.000000,1.345981,1.160631,0.306328,0.816104,0.675881,0.921853,1.315791,3.072048,0.625414,0.628645,NO
1.3.3,lang/java/src/java/org/apache/avro/specific/SpecificDatumReader.java,0.354790,0.000000,0.000000,1.595789,0.000000,0.000000,0.000000,0.000000,0.000000,0.000000,0.000000,1.197159,1.160631,0.499507,0.816104,0.847248,0.336831,0.328948,0.163843,0.104236,0.628645,NO
1.3.3,lang/java/src/java/org/apache/avro/specific/SpecificData.java,1.045697,0.000000,0.000000,2.127719,0.000000,0.000000,0.000000,0.000000,0.000000,0.000000,0.000000,0.761230,1.160631,0.439779,0.536407,0.464357,0.496382,3.947372,1.720347,1.094475,2.200256,NO
1.3.3,lang/java/src/java/org/apache/avro/specific/SpecificResponder.java,0.435707,0.000000,0.000000,1.595789,0.000000,0.000000,0.000000,0.000000,0.000000,0.000000,0.000000,1.135260,1.160631,0.655864,0.816104,0.699861,0.319103,0.328948,0.204803,0.260589,0.942967,NO
1.3.3,lang/java/src/java/org/apache/avro/specific/SpecificDatumWriter.java,0.180507,0.000000,0.000000,0.531930,0.000000,0.000000,0.000000,0.000000,0.000000,0.000000,0.000000,1.106286,1.160631,0.692385,0.816104,0.823365,0.319103,0.000000,0.000000,0.052118,0.314322,NO
1.3.3,lang/java/src/java/org/apache/avro/Schema.java,5.203588,0.000000,0.000000,3.191579,0.000000,0.000000,0.000000,0.000000,0.000000,0.000000,0.000000,1.390759,1.160631,0.261128,0.816104,0.734605,3.173301,2.960529,4.710474,8.182501,5.343480,YES
1.3.3,lang/java/src/java/org/apache/avro/util/Utf8.java,0.385912,0.000000,0.000000,0.531930,0.000000,0.000000,0.000000,0.000000,0.000000,0.000000,0.000000,0.999608,1.160631,0.938429,0.816104,0.877025,0.319103,0.657895,0.368646,0.625414,1.257289,NO
1.4.0,lang/java/src/java/org/apache/avro/Schema.java,6.436017,2.570878,1.948704,4.255438,1.265598,3.068397,3.262138,1.969323,2.330139,3.317289,1.648700,1.407880,1.160631,0.240312,0.990436,0.847308,3.456948,2.960529,6.758506,8.182501,5.343480,YES
1.4.0,lang/java/src/java/org/apache/avro/ipc/stats/Histogram.java,1.027024,0.589501,0.487176,0.000000,1.265598,0.764248,1.132452,1.962002,0.644949,1.099850,1.825347,0.592653,1.160631,1.483683,0.465524,0.427747,1.240956,0.657895,0.450567,0.312707,1.257289,NO
1.4.0,lang/java/src/java/org/apache/avro/ipc/stats/StatsPlugin.java,1.002126,3.168566,1.461528,0.000000,2.531197,2.806043,1.977566,2.401256,3.276757,1.862649,3.091313,0.629529,1.160631,0.945601,0.465524,0.200233,0.726845,0.328948,0.327685,0.052118,0.314322,NO
1.4.0,lang/java/src/java/org/apache/avro/ipc/stats/Stopwatch.java,0.236527,0.000000,0.000000,0.000000,0.000000,0.000000,0.000000,0.000000,0.000000,0.000000,0.000000,0.587385,1.160631,2.205742,0.465524,0.520775,0.496382,0.657895,0.163843,0.208471,0.628645,NO
1.4.0,lang/java/src/java/org/apache/avro/ipc/ByteBufferOutputStream.java,0.423258,0.262000,0.974352,0.000000,1.265598,0.262354,0.304241,0.336761,0.187243,0.283832,0.264970,1.031216,1.160631,0.968103,0.990436,1.000914,0.443198,0.328948,0.245764,0.156354,0.628645,NO
1.4.0,lang/java/src/java/org/apache/avro/ipc/RPCContext.java,0.522849,0.687751,1.461528,1.063860,1.265598,0.695807,0.692993,0.595433,0.416096,0.691841,0.392548,0.687477,1.160631,0.645402,0.773958,0.607036,1.542330,0.328948,0.163843,0.104236,0.314322,NO
1.4.0,lang/java/src/java/org/apache/avro/ipc/AvroRemoteException.java,0.093366,0.000000,0.000000,0.000000,0.000000,0.000000,0.000000,0.000000,0.000000,0.000000,0.000000,0.981170,1.160631,1.228160,0.990436,1.102510,0.319103,0.328948,0.040961,0.052118,0.314322,NO
1.4.0,lang/java/src/java/org/apache/avro/ipc/Transceiver.java,0.143161,0.245625,0.487176,0.000000,1.265598,0.330794,0.490166,0.849225,0.291267,0.496706,0.824350,1.015412,1.160631,0.953266,0.990436,0.929800,0.638206,0.000000,0.000000,0.104236,0.628645,NO
1.4.0,lang/java/src/java/org/apache/avro/ipc/HttpTransceiver.java,0.466829,0.171938,0.487176,0.000000,1.265598,0.079847,0.118316,0.204985,0.072817,0.124177,0.206088,0.663771,1.160631,0.712168,0.657098,0.656312,0.372287,0.986843,0.245764,0.052118,0.314322,NO
1.4.0,lang/java/src/java/org/apache/avro/ipc/DatagramServer.java,0.280097,0.016375,0.487176,0.000000,1.265598,0.011407,0.016902,0.029284,0.000000,0.000000,0.000000,1.073360,1.160631,0.806134,0.990436,1.034588,0.336831,0.657895,0.122882,0.052118,0.314322,NO
1.4.0,lang/java/src/java/org/apache/avro/ipc/RPCPlugin.java,0.062244,0.081875,0.487176,0.000000,1.265598,0.068440,0.101414,0.175702,0.020805,0.035479,0.058882,0.618993,1.160631,1.162218,0.773958,0.779112,0.975036,0.000000,0.000000,0.364825,0.314322,NO
1.4.0,lang/java/src/java/org/apache/avro/ipc/Responder.java,1.014575,0.663188,2.435880,1.595789,1.265598,0.638774,0.473264,0.327976,0.343279,0.372530,0.194311,1.307788,1.160631,0.409249,0.990436,0.908299,0.691390,0.657895,0.737292,0.260589,0.314322,NO
1.4.0,lang/java/src/java/org/apache/avro/ipc/Requestor.java,1.139063,0.638626,2.435880,1.063860,2.531197,0.558927,0.422557,0.286979,0.228853,0.230614,0.129541,1.330177,1.160631,0.454097,0.990436,0.910851,0.673662,0.657895,0.901134,0.208471,0.314322,YES
1.4.0,lang/java/src/java/org/apache/avro/ipc/DatagramTransceiver.java,0.336117,0.000000,0.000000,0.000000,0.000000,0.000000,0.000000,0.000000,0.000000,0.000000,0.000000,0.600555,1.160631,1.503465,0.670508,0.740184,0.390015,0.657895,0.122882,0.104236,0.314322,NO
1.4.0,lang/java/src/java/org/apache/avro/ipc/SocketTransceiver.java,0.479278,0.147375,0.974352,0.000000,1.265598,0.193914,0.270436,0.248911,0.166438,0.266093,0.235529,1.053605,1.160631,0.719361,0.990436,1.021713,0.407743,0.657895,0.327685,0.104236,0.314322,NO
1.4.0,lang/java/src/java/org/apache/avro/ipc/ByteBufferInputStream.java,0.311219,0.000000,0.000000,0.000000,0.000000,0.000000,0.000000,0.000000,0.000000,0.000000,0.000000,0.981170,1.160631,0.921120,0.990436,1.103872,0.531838,0.657895,0.286725,0.312707,0.628645,NO
1.4.0,lang/java/src/java/org/apache/avro/ipc/SocketServer.java,0.454380,0.024563,0.974352,0.000000,1.265598,0.011407,0.016902,0.014642,0.010402,0.017740,0.014721,1.107603,1.160631,0.693210,0.990436,1.073349,0.336831,0.657895,0.245764,0.312707,1.257289,YES
1.4.0,lang/java/src/java/org/apache/avro/specific/SpecificDatumWriter.java,0.174283,0.081875,0.487176,0.531930,1.265598,0.045627,0.067609,0.117134,0.020805,0.035479,0.058882,1.155015,1.160631,0.667277,0.990436,0.973171,0.336831,0.328948,0.040961,0.052118,0.314322,NO
1.4.0,lang/java/src/java/org/apache/avro/specific/SpecificCompiler.java,2.190985,0.393000,2.923057,2.659649,1.265598,0.365014,0.185925,0.156179,0.166438,0.124177,0.078510,1.438171,1.160631,0.276954,0.990436,0.851333,0.939581,1.315791,3.194930,0.625414,0.628645,YES
1.4.0,lang/java/src/java/org/apache/avro/specific/SpecificExceptionBase.java,0.112039,0.000000,0.000000,1.063860,0.000000,0.000000,0.000000,0.000000,0.000000,0.000000,0.000000,1.015412,1.160631,0.847348,0.990436,1.036307,0.372287,0.328948,0.122882,0.312707,0.942967,NO
1.4.0,lang/java/src/java/org/apache/avro/specific/SpecificRecordBase.java,0.168058,0.000000,0.000000,1.595789,0.000000,0.000000,0.000000,0.000000,0.000000,0.000000,0.000000,0.729622,1.160631,0.782819,0.886987,0.825541,0.372287,0.328948,0.122882,0.208471,0.628645,NO
1.4.0,lang/java/src/java/org/apache/avro/specific/ProtocolTask.java,0.286322,0.000000,0.000000,0.000000,0.000000,0.000000,0.000000,0.000000,0.000000,0.000000,0.000000,0.987755,1.160631,1.059774,0.990436,1.067419,0.390015,0.657895,0.245764,0.364825,1.571612,NO
1.4.0,lang/java/src/java/org/apache/avro/specific/SpecificRequestor.java,0.448156,0.032750,0.487176,1.595789,1.265598,0.022813,0.033805,0.058567,0.000000,0.000000,0.000000,1.178721,1.160631,0.553290,0.990436,0.932604,0.372287,0.328948,0.081921,0.156354,0.628645,NO
1.4.0,lang/java/src/java/org/apache/avro/specific/SpecificData.java,0.952331,0.474875,1.948704,2.127719,1.265598,0.205320,0.118316,0.131776,0.228853,0.354790,0.161926,0.862639,1.160631,0.381103,0.710739,0.584478,0.514110,3.947372,1.761308,1.094475,2.200256,NO
1.4.0,lang/java/src/java/org/apache/avro/specific/SpecificDatumReader.java,0.367239,0.368438,0.974352,1.595789,1.265598,0.319387,0.371850,0.409971,0.114426,0.106437,0.161926,1.251156,1.160631,0.469833,0.990436,0.980364,0.531838,0.657895,0.368646,0.104236,0.628645,NO
1.4.0,lang/java/src/java/org/apache/avro/specific/SpecificResponder.java,0.441932,0.008188,0.487176,1.595789,1.265598,0.011407,0.016902,0.029284,0.010402,0.017740,0.029441,1.183989,1.160631,0.635158,0.990436,0.892122,0.319103,0.328948,0.204803,0.260589,0.942967,NO
1.4.0,lang/java/src/java/org/apache/avro/io/BinaryEncoder.java,1.107941,0.000000,0.000000,0.531930,0.000000,0.000000,0.000000,0.000000,0.000000,0.000000,0.000000,1.028582,1.160631,0.858338,0.990436,1.009087,0.691390,0.328948,0.245764,1.146592,0.942967,NO
1.4.0,lang/java/src/java/org/apache/avro/io/ParsingEncoder.java,0.224078,0.000000,0.000000,0.000000,0.000000,0.000000,0.000000,0.000000,0.000000,0.000000,0.000000,0.690111,1.160631,1.295750,0.791200,0.862018,0.425470,0.328948,0.122882,0.052118,0.314322,NO
1.4.0,lang/java/src/java/org/apache/avro/io/BlockingBinaryEncoder.java,2.601794,0.000000,0.000000,1.063860,0.000000,0.000000,0.000000,0.000000,0.000000,0.000000,0.000000,0.754645,1.160631,0.809667,0.881239,0.965717,2.162808,1.315791,1.884190,0.990239,1.571612,NO
1.4.0,lang/java/src/java/org/apache/avro/io/parsing/Parser.java,0.609990,0.000000,0.000000,1.063860,0.000000,0.000000,0.000000,0.000000,0.000000,0.000000,0.000000,0.766498,1.160631,0.639632,0.791200,0.665995,1.400507,1.315791,0.532488,0.156354,0.314322,NO
1.4.0,lang/java/src/java/org/apache/avro/io/parsing/ValidatingGrammarGenerator.java,0.510400,0.000000,0.000000,0.531930,0.000000,0.000000,0.000000,0.000000,0.000000,0.000000,0.000000,0.777034,1.160631,0.729477,0.791200,0.836676,0.762301,1.315791,0.737292,0.312707,1.571612,NO
1.4.0,lang/java/src/java/org/apache/avro/io/parsing/SkipParser.java,0.273873,0.000000,0.000000,0.531930,0.000000,0.000000,0.000000,0.000000,0.000000,0.000000,0.000000,0.757279,1.160631,0.710931,0.791200,0.818434,0.762301,0.986843,0.122882,0.104236,0.628645,NO
1.4.0,lang/java/src/java/org/apache/avro/io/parsing/Symbol.java,2.228331,0.000000,0.000000,1.063860,0.000000,0.000000,0.000000,0.000000,0.000000,0.000000,0.000000,0.791521,1.160631,0.457279,0.791200,0.728108,2.180536,0.986843,0.655370,0.729650,1.257289,NO
1.4.0,lang/java/src/java/org/apache/avro/io/parsing/ResolvingGrammarGenerator.java,2.190985,0.171938,0.974352,2.127719,2.531197,0.216727,0.304241,0.278194,0.197646,0.319311,0.279690,0.815227,1.160631,0.408178,0.791200,0.706989,1.489147,1.644738,3.768379,1.146592,1.885934,NO
1.4.0,lang/java/src/java/org/apache/avro/io/parsing/JsonGrammarGenerator.java,0.361015,0.000000,0.000000,1.063860,0.000000,0.000000,0.000000,0.000000,0.000000,0.000000,0.000000,0.775717,1.160631,0.728241,0.791200,0.809533,0.620478,1.315791,0.655370,0.208471,0.314322,NO
1.4.0,lang/java/src/java/org/apache/avro/io/DecoderFactory.java,0.473053,0.000000,0.000000,0.000000,0.000000,0.000000,0.000000,0.000000,0.000000,0.000000,0.000000,0.031608,0.064182,0.237389,0.385063,0.430764,2.535095,0.986843,0.327685,0.208471,0.942967,NO
1.4.0,lang/java/src/java/org/apache/avro/io/JsonDecoder.java,2.259453,0.000000,0.000000,1.063860,0.000000,0.000000,0.000000,0.000000,0.000000,0.000000,0.000000,0.812593,1.160631,0.554807,0.791200,0.823093,0.372287,1.644738,1.597465,0.208471,0.942967,NO
1.4.0,lang/java/src/java/org/apache/avro/io/BinaryData.java,1.556097,0.876063,0.487176,0.000000,1.265598,1.220515,1.808543,3.133346,1.113057,1.898128,3.150195,0.724354,1.160631,0.777167,0.714570,0.632849,0.638206,1.973686,2.703403,0.886003,1.571612,NO
1.4.0,lang/java/src/java/org/apache/avro/io/BinaryDecoder.java,4.033403,0.000000,0.000000,0.000000,0.000000,0.000000,0.000000,0.000000,0.000000,0.000000,0.000000,0.757279,1.160631,0.710931,0.846756,0.556101,4.538352,2.960529,2.539560,2.605892,2.828901,NO
1.4.0,lang/java/src/java/org/apache/avro/generic/GenericDatumReader.java,1.674360,0.925188,3.410233,3.191579,2.531197,0.878314,0.507068,0.322120,0.426499,0.408009,0.172441,1.440805,1.160631,0.292459,0.990436,0.903263,1.542330,1.315791,2.129954,0.416943,0.942967,NO
1.4.0,lang/java/src/java/org/apache/avro/generic/GenericRequestor.java,0.286322,0.098250,0.974352,1.063860,1.265598,0.091253,0.118316,0.117134,0.062414,0.088698,0.088323,1.157649,1.160631,0.668799,0.990436,0.984039,0.336831,0.657895,0.163843,0.208471,0.628645,NO
1.4.0,lang/java/src/java/org/apache/avro/generic/GenericDatumWriter.java,0.883863,0.614063,1.461528,2.127719,1.265598,0.524707,0.625384,0.449015,0.176841,0.266093,0.166833,1.239303,1.160631,0.443221,0.990436,0.958762,0.815485,0.657895,0.860174,0.052118,0.314322,NO
1.4.0,lang/java/src/java/org/apache/avro/generic/GenericResponder.java,0.180507,0.000000,0.000000,0.531930,0.000000,0.000000,0.000000,0.000000,0.000000,0.000000,0.000000,1.043069,1.160631,0.870427,0.990436,1.063002,0.319103,0.328948,0.040961,0.052118,0.314322,NO
1.4.0,lang/java/src/java/org/apache/avro/generic/GenericData.java,2.726282,0.622251,2.435880,3.191579,1.265598,0.638774,0.371850,0.327976,0.374487,0.266093,0.211976,1.415782,1.160631,0.343002,0.990436,0.908259,1.028220,3.947372,4.792395,3.960956,2.828901,YES
1.4.0,lang/java/src/java/org/apache/avro/tool/JsonToBinaryFragmentTool.java,0.329893,0.008188,0.487176,0.531930,1.265598,0.011407,0.016902,0.029284,0.010402,0.017740,0.029441,0.592653,1.160631,1.483683,0.482766,0.533935,0.319103,0.328948,0.122882,0.104236,0.628645,NO
1.4.0,lang/java/src/java/org/apache/avro/tool/RpcSendTool.java,0.566419,0.000000,0.000000,0.000000,0.000000,0.000000,0.000000,0.000000,0.000000,0.000000,0.000000,0.601872,1.160631,1.506762,0.480850,0.512245,0.354559,0.657895,0.163843,0.052118,0.314322,NO
1.4.0,lang/java/src/java/org/apache/avro/tool/RpcReceiveTool.java,0.846517,0.008188,0.487176,0.000000,1.265598,0.011407,0.016902,0.029284,0.010402,0.017740,0.029441,0.632163,1.160631,1.186946,0.480850,0.514421,0.407743,0.657895,0.368646,0.156354,0.942967,NO
1.4.0,lang/java/src/java/org/apache/avro/tool/Main.java,0.404585,0.081875,1.461528,0.000000,1.265598,0.079847,0.050707,0.068328,0.041610,0.035479,0.039255,0.759913,1.160631,0.439018,0.605373,0.581861,0.425470,0.657895,0.245764,0.052118,0.314322,YES
1.4.0,lang/java/src/java/org/apache/avro/tool/Util.java,0.479278,0.491250,0.487176,0.000000,1.265598,0.615961,0.912723,1.581315,0.499315,0.851497,1.413172,1.043069,1.160631,0.712168,0.990436,0.678572,0.620478,0.986843,0.245764,0.156354,0.942967,NO
1.4.0,lang/java/src/java/org/apache/avro/tool/BinaryFragmentToJsonTool.java,0.385912,0.000000,0.000000,0.000000,0.000000,0.000000,0.000000,0.000000,0.000000,0.000000,0.000000,0.620310,1.160631,1.552921,0.482766,0.533922,0.319103,0.328948,0.122882,0.104236,0.628645,NO
1.4.0,lang/java/src/java/org/apache/avro/tool/DataFileWriteTool.java,0.429483,0.000000,0.000000,0.000000,0.000000,0.000000,0.000000,0.000000,0.000000,0.000000,0.000000,0.625578,1.160631,1.174582,0.482766,0.528543,0.319103,0.657895,0.163843,0.104236,0.628645,NO
1.4.0,lang/java/src/java/org/apache/avro/util/Utf8.java,0.460605,0.458500,0.974352,0.531930,1.265598,0.490487,0.692993,0.629598,0.312072,0.532185,0.441616,1.085213,1.160631,0.815036,0.990436,0.896816,0.549566,0.657895,0.409606,0.625414,1.257289,NO
1.4.0,lang/java/src/java/org/apache/avro/file/DeflateCodec.java,0.603766,0.786001,0.487176,0.531930,1.265598,0.547521,0.811309,1.405613,0.000000,0.000000,0.000000,0.094824,0.064182,0.118695,0.438704,0.334640,0.549566,0.328948,0.245764,0.312707,1.257289,NO
1.4.0,lang/java/src/java/org/apache/avro/file/DataFileWriter.java,1.543648,0.458500,1.461528,2.127719,2.531197,0.296574,0.202827,0.253791,0.291267,0.230614,0.274783,1.201110,1.160631,0.429562,0.990436,0.804574,1.524602,0.657895,0.737292,0.416943,0.942967,YES
1.4.0,lang/java/src/java/org/apache/avro/file/CodecFactory.java,0.224078,0.000000,0.000000,0.000000,0.000000,0.000000,0.000000,0.000000,0.000000,0.000000,0.000000,0.032925,0.042788,0.123640,0.438704,0.486034,0.496382,0.328948,0.040961,0.104236,0.314322,NO
1.4.0,lang/java/src/java/org/apache/avro/file/NullCodec.java,0.217854,0.000000,0.000000,0.000000,0.000000,0.000000,0.000000,0.000000,0.000000,0.000000,0.000000,1.077311,1.160631,0.622386,0.990436,0.774037,0.336831,0.328948,0.040961,0.156354,0.942967,NO
1.4.0,lang/java/src/java/org/apache/avro/file/DataFileReader.java,0.753151,0.057313,0.487176,1.063860,1.265598,0.079847,0.118316,0.204985,0.072817,0.124177,0.206088,1.148430,1.160631,0.575010,0.990436,0.890413,0.620478,0.986843,0.368646,0.521178,2.514579,NO
1.4.0,lang/java/src/java/org/apache/avro/file/DataFileStream.java,1.462731,0.720501,0.974352,1.063860,1.265598,0.832688,0.929625,1.068852,0.603339,0.727320,0.853791,0.725671,1.160631,0.545006,0.480850,0.410127,1.081404,0.986843,1.105937,0.677532,1.257289,NO
1.4.0,lang/java/src/java/org/apache/avro/reflect/InduceSchemaTool.java,0.304995,0.000000,0.000000,0.000000,0.000000,0.000000,0.000000,0.000000,0.000000,0.000000,0.000000,0.607140,1.160631,0.759975,0.559395,0.614775,0.354559,0.986843,0.204803,0.052118,0.314322,NO
1.4.0,lang/java/src/java/org/apache/avro/reflect/ReflectData.java,2.184760,0.229250,1.948704,3.723509,1.265598,0.182507,0.118316,0.117134,0.145634,0.088698,0.103044,1.422367,1.160631,0.314192,0.990436,0.819171,1.223228,3.947372,3.031088,2.449539,3.457546,YES
1.4.0,lang/java/src/java/org/apache/avro/reflect/ReflectDatumReader.java,0.722029,0.090063,0.974352,2.127719,1.265598,0.102660,0.135218,0.131776,0.072817,0.124177,0.103044,1.326226,1.160631,0.398418,0.990436,0.919827,0.407743,0.657895,0.614410,0.573296,1.257289,NO
1.4.0,lang/java/src/java/org/apache/avro/reflect/ReflectDatumWriter.java,0.529073,0.073688,0.974352,2.659649,1.265598,0.034220,0.050707,0.043925,0.093622,0.106437,0.132485,1.368370,1.160631,0.395268,0.990436,0.905966,0.425470,0.328948,0.286725,0.416943,0.942967,YES
1.4.0,lang/java/src/java/org/apache/avro/Protocol.java,1.991804,1.048001,0.487176,1.063860,1.265598,1.083635,1.605716,2.781943,0.644949,1.099850,1.825347,1.282764,1.160631,0.418872,0.990436,0.979942,1.258683,0.986843,1.720347,1.563535,1.257289,YES
1.4.1,lang/java/src/java/org/apache/avro/Schema.java,6.516934,0.155563,0.487176,4.255438,1.265598,0.182507,0.270436,0.468538,0.135231,0.230614,0.382734,1.415782,1.160631,0.236290,1.059403,0.919585,3.456948,2.960529,6.881388,11.101100,6.286447,YES
1.4.1,lang/java/src/java/org/apache/avro/ipc/stats/StatsServlet.java,1.188858,0.000000,0.000000,0.000000,0.000000,0.000000,0.000000,0.000000,0.000000,0.000000,0.000000,0.629529,1.160631,0.945601,0.534491,0.230440,0.744573,0.328948,0.286725,1.094475,1.571612,NO
1.4.1,lang/java/src/java/org/apache/avro/ipc/stats/Histogram.java,1.027024,0.000000,0.000000,0.000000,0.000000,0.000000,0.000000,0.000000,0.000000,0.000000,0.000000,0.592653,1.160631,1.483683,0.534491,0.504899,1.240956,0.657895,0.450567,0.573296,1.885934,NO
1.4.1,lang/java/src/java/org/apache/avro/ipc/stats/StatsServer.java,0.124488,0.000000,0.000000,0.000000,0.000000,0.000000,0.000000,0.000000,0.000000,0.000000,0.000000,0.023706,0.048137,0.178042,0.149428,0.167162,0.496382,0.000000,0.000000,0.052118,0.314322,NO
1.4.1,lang/java/src/java/org/apache/avro/ipc/stats/StatsPlugin.java,1.002126,0.000000,0.000000,0.000000,0.000000,0.000000,0.000000,0.000000,0.000000,0.000000,0.000000,0.629529,1.160631,0.945601,0.534491,0.277384,0.726845,0.328948,0.327685,0.052118,0.314322,NO
1.4.1,lang/java/src/java/org/apache/avro/ipc/stats/Stopwatch.java,0.236527,0.000000,0.000000,0.000000,0.000000,0.000000,0.000000,0.000000,0.000000,0.000000,0.000000,0.587385,1.160631,2.205742,0.534491,0.597926,0.496382,0.657895,0.163843,0.208471,0.628645,NO
1.4.1,lang/java/src/java/org/apache/avro/ipc/ByteBufferOutputStream.java,0.423258,0.000000,0.000000,0.000000,0.000000,0.000000,0.000000,0.000000,0.000000,0.000000,0.000000,1.031216,1.160631,0.968103,1.059403,1.078066,0.443198,0.328948,0.245764,0.156354,0.628645,NO
1.4.1,lang/java/src/java/org/apache/avro/ipc/RPCContext.java,0.522849,0.000000,0.000000,1.063860,0.000000,0.000000,0.000000,0.000000,0.000000,0.000000,0.000000,0.687477,1.160631,0.645402,0.842925,0.684188,1.542330,0.328948,0.163843,0.104236,0.314322,YES
1.4.1,lang/java/src/java/org/apache/avro/ipc/AvroRemoteException.java,0.093366,0.000000,0.000000,0.000000,0.000000,0.000000,0.000000,0.000000,0.000000,0.000000,0.000000,0.981170,1.160631,1.228160,1.059403,1.179662,0.319103,0.328948,0.040961,0.052118,0.314322,NO
1.4.1,lang/java/src/java/org/apache/avro/ipc/Transceiver.java,0.143161,0.000000,0.000000,0.000000,0.000000,0.000000,0.000000,0.000000,0.000000,0.000000,0.000000,1.015412,1.160631,0.953266,1.059403,1.006951,0.638206,0.000000,0.000000,0.156354,0.628645,NO
1.4.1,lang/java/src/java/org/apache/avro/ipc/HttpTransceiver.java,0.466829,0.000000,0.000000,0.000000,0.000000,0.000000,0.000000,0.000000,0.000000,0.000000,0.000000,0.663771,1.160631,0.712168,0.726065,0.733464,0.372287,0.986843,0.245764,0.052118,0.314322,NO
1.4.1,lang/java/src/java/org/apache/avro/ipc/NettyServer.java,0.678458,0.000000,0.000000,0.531930,0.000000,0.000000,0.000000,0.000000,0.000000,0.000000,0.000000,0.046095,0.061508,0.115398,0.201152,0.214601,0.425470,0.328948,0.081921,0.104236,0.314322,NO
1.4.1,lang/java/src/java/org/apache/avro/ipc/DatagramServer.java,0.280097,0.000000,0.000000,0.000000,0.000000,0.000000,0.000000,0.000000,0.000000,0.000000,0.000000,1.073360,1.160631,0.806134,1.059403,1.111740,0.336831,0.657895,0.122882,0.052118,0.314322,NO
1.4.1,lang/java/src/java/org/apache/avro/ipc/RPCPlugin.java,0.062244,0.000000,0.000000,0.000000,0.000000,0.000000,0.000000,0.000000,0.000000,0.000000,0.000000,0.618993,1.160631,1.162218,0.842925,0.856264,0.975036,0.000000,0.000000,0.364825,0.314322,NO
1.4.1,lang/java/src/java/org/apache/avro/ipc/trace/Trace.java,0.784273,0.000000,0.000000,0.000000,0.000000,0.000000,0.000000,0.000000,0.000000,0.000000,0.000000,0.092190,0.074879,0.230795,0.134102,0.149238,1.772794,1.644738,0.819213,0.469061,0.942967,NO
1.4.1,lang/java/src/java/org/apache/avro/ipc/trace/TraceClientServlet.java,1.182634,0.000000,0.000000,0.000000,0.000000,0.000000,0.000000,0.000000,0.000000,0.000000,0.000000,0.055314,0.066857,0.207716,0.134102,0.120772,0.726845,0.986843,0.819213,0.625414,2.200256,NO
1.4.1,lang/java/src/java/org/apache/avro/ipc/trace/TracePlugin.java,1.543648,0.000000,0.000000,0.000000,0.000000,0.000000,0.000000,0.000000,0.000000,0.000000,0.000000,0.121165,0.074879,0.181998,0.134102,0.143465,1.170044,0.986843,1.024016,0.573296,2.514579,NO
1.4.1,lang/java/src/java/org/apache/avro/ipc/trace/Util.java,0.865190,0.000000,0.000000,0.000000,0.000000,0.000000,0.000000,0.000000,0.000000,0.000000,0.000000,0.081654,0.066857,0.153314,0.134102,0.138650,1.081404,1.315791,0.983055,0.521178,1.885934,NO
1.4.1,lang/java/src/java/org/apache/avro/ipc/trace/TraceCollection.java,1.232429,0.000000,0.000000,0.000000,0.000000,0.000000,0.000000,0.000000,0.000000,0.000000,0.000000,0.044778,0.066857,0.168151,0.099618,0.109635,1.365051,0.986843,0.573449,0.416943,1.571612,NO
1.4.1,lang/java/src/java/org/apache/avro/ipc/trace/SpanAggregator.java,0.666010,0.000000,0.000000,0.531930,0.000000,0.000000,0.000000,0.000000,0.000000,0.000000,0.000000,0.064533,0.066857,0.161557,0.134102,0.143623,0.975036,1.973686,0.614410,0.312707,0.942967,NO
1.4.1,lang/java/src/java/org/apache/avro/ipc/trace/FileSpanStorage.java,1.319570,0.000000,0.000000,0.000000,0.000000,0.000000,0.000000,0.000000,0.000000,0.000000,0.000000,0.014487,0.029417,0.108803,0.118776,0.132873,1.861433,0.986843,0.942095,0.938121,2.200256,NO
1.4.1,lang/java/src/java/org/apache/avro/ipc/trace/InMemorySpanStorage.java,0.280097,0.000000,0.000000,0.000000,0.000000,0.000000,0.000000,0.000000,0.000000,0.000000,0.000000,0.036876,0.045462,0.138477,0.134102,0.147446,0.425470,0.657895,0.163843,0.052118,0.314322,NO
1.4.1,lang/java/src/java/org/apache/avro/ipc/Responder.java,1.014575,0.000000,0.000000,1.595789,0.000000,0.000000,0.000000,0.000000,0.000000,0.000000,0.000000,1.307788,1.160631,0.409249,1.059403,0.985450,0.691390,0.657895,0.737292,0.521178,0.628645,YES
1.4.1,lang/java/src/java/org/apache/avro/ipc/NettyTransceiver.java,1.188858,0.000000,0.000000,0.000000,0.000000,0.000000,0.000000,0.000000,0.000000,0.000000,0.000000,0.011853,0.024068,0.089021,0.201152,0.225026,0.638206,0.328948,0.286725,0.260589,0.942967,NO
1.4.1,lang/java/src/java/org/apache/avro/ipc/Requestor.java,1.139063,0.000000,0.000000,1.063860,0.000000,0.000000,0.000000,0.000000,0.000000,0.000000,0.000000,1.330177,1.160631,0.454097,1.059403,0.988003,0.673662,0.657895,0.901134,0.469061,0.314322,YES
1.4.1,lang/java/src/java/org/apache/avro/ipc/DatagramTransceiver.java,0.336117,0.000000,0.000000,0.000000,0.000000,0.000000,0.000000,0.000000,0.000000,0.000000,0.000000,0.600555,1.160631,1.503465,0.739475,0.817336,0.390015,0.657895,0.122882,0.104236,0.314322,NO
1.4.1,lang/java/src/java/org/apache/avro/ipc/NettyTransportCodec.java,0.690907,0.000000,0.000000,0.000000,0.000000,0.000000,0.000000,0.000000,0.000000,0.000000,0.000000,0.019755,0.024068,0.074184,0.201152,0.213221,0.815485,0.657895,0.286725,0.312707,0.942967,NO
1.4.1,lang/java/src/java/org/apache/avro/ipc/SocketTransceiver.java,0.479278,0.000000,0.000000,0.000000,0.000000,0.000000,0.000000,0.000000,0.000000,0.000000,0.000000,1.053605,1.160631,0.719361,1.059403,1.098865,0.407743,0.657895,0.327685,0.208471,0.628645,YES
1.4.1,lang/java/src/java/org/apache/avro/ipc/ByteBufferInputStream.java,0.311219,0.000000,0.000000,0.000000,0.000000,0.000000,0.000000,0.000000,0.000000,0.000000,0.000000,0.981170,1.160631,0.921120,1.059403,1.181023,0.531838,0.657895,0.286725,0.312707,0.628645,NO
1.4.1,lang/java/src/java/org/apache/avro/ipc/SocketServer.java,0.553971,0.360250,0.487176,0.000000,1.265598,0.365014,0.540873,0.937075,0.208048,0.354790,0.588822,1.118139,1.160631,0.645973,1.059403,1.048429,0.372287,0.657895,0.327685,0.312707,1.257289,YES
1.4.1,lang/java/src/java/org/apache/avro/specific/SpecificDatumWriter.java,0.174283,0.000000,0.000000,0.531930,0.000000,0.000000,0.000000,0.000000,0.000000,0.000000,0.000000,1.155015,1.160631,0.667277,1.059403,1.050323,0.336831,0.328948,0.040961,0.156354,0.628645,YES
1.4.1,lang/java/src/java/org/apache/avro/specific/SpecificCompiler.java,2.190985,0.000000,0.000000,2.659649,0.000000,0.000000,0.000000,0.000000,0.000000,0.000000,0.000000,1.438171,1.160631,0.276954,1.059403,0.928484,0.939581,1.315791,3.194930,0.729650,0.942967,YES
1.4.1,lang/java/src/java/org/apache/avro/specific/SpecificExceptionBase.java,0.112039,0.000000,0.000000,1.063860,0.000000,0.000000,0.000000,0.000000,0.000000,0.000000,0.000000,1.015412,1.160631,0.847348,1.059403,1.113459,0.372287,0.328948,0.122882,0.312707,0.942967,NO
1.4.1,lang/java/src/java/org/apache/avro/specific/SpecificRecordBase.java,0.168058,0.000000,0.000000,1.595789,0.000000,0.000000,0.000000,0.000000,0.000000,0.000000,0.000000,0.729622,1.160631,0.782819,0.955953,0.902692,0.372287,0.328948,0.122882,0.208471,0.628645,NO
1.4.1,lang/java/src/java/org/apache/avro/specific/ProtocolTask.java,0.286322,0.000000,0.000000,0.000000,0.000000,0.000000,0.000000,0.000000,0.000000,0.000000,0.000000,0.987755,1.160631,1.059774,1.059403,1.144570,0.390015,0.657895,0.245764,0.364825,1.571612,NO
1.4.1,lang/java/src/java/org/apache/avro/specific/SpecificRequestor.java,0.448156,0.000000,0.000000,1.595789,0.000000,0.000000,0.000000,0.000000,0.000000,0.000000,0.000000,1.178721,1.160631,0.553290,1.059403,1.009756,0.372287,0.328948,0.081921,0.156354,0.628645,NO
1.4.1,lang/java/src/java/org/apache/avro/specific/SpecificData.java,0.952331,0.000000,0.000000,2.127719,0.000000,0.000000,0.000000,0.000000,0.000000,0.000000,0.000000,0.862639,1.160631,0.381103,0.779705,0.661630,0.514110,3.947372,1.761308,1.198710,2.514579,YES
1.4.1,lang/java/src/java/org/apache/avro/specific/SpecificDatumReader.java,0.367239,0.000000,0.000000,1.595789,0.000000,0.000000,0.000000,0.000000,0.000000,0.000000,0.000000,1.251156,1.160631,0.469833,1.059403,1.057516,0.531838,0.657895,0.368646,0.260589,0.942967,NO
1.4.1,lang/java/src/java/org/apache/avro/specific/SpecificResponder.java,0.441932,0.000000,0.000000,1.595789,0.000000,0.000000,0.000000,0.000000,0.000000,0.000000,0.000000,1.183989,1.160631,0.635158,1.059403,0.969273,0.319103,0.328948,0.204803,0.312707,1.257289,NO
1.4.1,lang/java/src/java/org/apache/avro/mapred/HadoopReducer.java,0.192956,0.000000,0.000000,0.000000,0.000000,0.000000,0.000000,0.000000,0.000000,0.000000,0.000000,0.048729,0.098948,0.365975,0.162838,0.182164,0.336831,0.000000,0.000000,0.052118,0.314322,NO
1.4.1,lang/java/src/java/org/apache/avro/mapred/tether/TetherReducer.java,0.329893,0.000000,0.000000,0.000000,0.000000,0.000000,0.000000,0.000000,0.000000,0.000000,0.000000,0.048729,0.098948,0.365975,0.231804,0.259316,0.354559,0.328948,0.245764,0.156354,0.314322,NO
1.4.1,lang/java/src/java/org/apache/avro/mapred/tether/TetherPartitioner.java,0.186732,0.000000,0.000000,0.000000,0.000000,0.000000,0.000000,0.000000,0.000000,0.000000,0.000000,0.050046,0.098948,0.187933,0.231804,0.259316,0.319103,0.328948,0.081921,0.104236,0.314322,NO
1.4.1,lang/java/src/java/org/apache/avro/mapred/tether/TetherKeyComparator.java,0.205405,0.000000,0.000000,0.000000,0.000000,0.000000,0.000000,0.000000,0.000000,0.000000,0.000000,0.072435,0.098948,0.272009,0.375485,0.358353,0.319103,0.328948,0.122882,0.104236,0.628645,NO
1.4.1,lang/java/src/java/org/apache/avro/mapred/tether/TetherRecordReader.java,0.311219,0.000000,0.000000,0.000000,0.000000,0.000000,0.000000,0.000000,0.000000,0.000000,0.000000,0.072435,0.098948,0.272009,0.375485,0.370792,0.319103,0.328948,0.081921,0.052118,0.314322,NO
1.4.1,lang/java/src/java/org/apache/avro/mapred/tether/TetherJob.java,0.647336,0.000000,0.000000,0.000000,0.000000,0.000000,0.000000,0.000000,0.000000,0.000000,0.000000,0.097458,0.098948,0.365975,0.231804,0.256423,0.496382,0.328948,0.204803,0.156354,0.628645,YES
1.4.1,lang/java/src/java/org/apache/avro/mapred/tether/TetherInputFormat.java,0.192956,0.000000,0.000000,0.000000,0.000000,0.000000,0.000000,0.000000,0.000000,0.000000,0.000000,0.072435,0.098948,0.272009,0.375485,0.387902,0.319103,0.657895,0.081921,0.104236,0.314322,NO
1.4.1,lang/java/src/java/org/apache/avro/mapred/tether/TetherMapRunner.java,0.342341,0.000000,0.000000,0.000000,0.000000,0.000000,0.000000,0.000000,0.000000,0.000000,0.000000,0.048729,0.098948,0.365975,0.231804,0.259316,0.407743,0.657895,0.204803,0.208471,0.628645,NO
1.4.1,lang/java/src/java/org/apache/avro/mapred/tether/TetherOutputService.java,0.410810,0.000000,0.000000,0.000000,0.000000,0.000000,0.000000,0.000000,0.000000,0.000000,0.000000,0.085605,0.098948,0.321465,0.231804,0.250666,0.301375,0.328948,0.122882,0.364825,1.257289,NO
1.4.1,lang/java/src/java/org/apache/avro/mapred/tether/TetheredProcess.java,0.553971,0.000000,0.000000,0.000000,0.000000,0.000000,0.000000,0.000000,0.000000,0.000000,0.000000,0.079020,0.098948,0.296737,0.231804,0.258764,0.460926,0.657895,0.286725,0.312707,0.942967,NO
1.4.1,lang/java/src/java/org/apache/avro/mapred/tether/TetherKeySerialization.java,0.329893,0.000000,0.000000,0.000000,0.000000,0.000000,0.000000,0.000000,0.000000,0.000000,0.000000,0.048729,0.098948,0.365975,0.231804,0.259316,0.319103,0.328948,0.040961,0.156354,0.628645,NO
1.4.1,lang/java/src/java/org/apache/avro/mapred/tether/TetherData.java,0.074693,0.000000,0.000000,0.000000,0.000000,0.000000,0.000000,0.000000,0.000000,0.000000,0.000000,1.037801,1.160631,0.866031,1.059403,0.877989,0.407743,0.000000,0.000000,0.052118,0.314322,NO
1.4.1,lang/java/src/java/org/apache/avro/mapred/AvroWrapper.java,0.155610,0.000000,0.000000,1.063860,0.000000,0.000000,0.000000,0.000000,0.000000,0.000000,0.000000,0.721720,1.160631,0.677549,0.808441,0.660755,0.372287,0.657895,0.286725,0.364825,0.628645,NO
1.4.1,lang/java/src/java/org/apache/avro/mapred/AvroJob.java,0.553971,0.040938,0.487176,0.000000,1.265598,0.057033,0.084511,0.146418,0.052012,0.088698,0.147205,0.140920,0.098948,0.211672,0.375485,0.273067,0.726845,0.328948,0.163843,0.156354,0.628645,YES
1.4.1,lang/java/src/java/org/apache/avro/mapred/AvroSerialization.java,0.529073,0.000000,0.000000,0.000000,0.000000,0.000000,0.000000,0.000000,0.000000,0.000000,0.000000,0.121165,0.098948,0.303331,0.375485,0.359174,0.460926,0.657895,0.245764,0.052118,0.314322,YES
1.4.1,lang/java/src/java/org/apache/avro/mapred/AvroInputFormat.java,0.186732,0.000000,0.000000,0.000000,0.000000,0.000000,0.000000,0.000000,0.000000,0.000000,0.000000,0.023706,0.048137,0.178042,0.375485,0.420049,0.319103,0.657895,0.081921,0.104236,0.314322,NO
1.4.1,lang/java/src/java/org/apache/avro/mapred/AvroMapper.java,0.068468,0.000000,0.000000,0.000000,0.000000,0.000000,0.000000,0.000000,0.000000,0.000000,0.000000,0.072435,0.098948,0.272009,0.375485,0.323609,0.407743,0.000000,0.000000,0.104236,0.314322,NO
1.4.1,lang/java/src/java/org/apache/avro/mapred/AvroRecordReader.java,0.317444,0.188313,0.487176,0.000000,1.265598,0.148287,0.219730,0.380687,0.031207,0.053219,0.088323,0.085605,0.098948,0.214310,0.375485,0.330056,0.336831,0.328948,0.081921,0.052118,0.314322,YES
1.4.1,lang/java/src/java/org/apache/avro/mapred/AvroReducer.java,0.112039,0.000000,0.000000,0.000000,0.000000,0.000000,0.000000,0.000000,0.000000,0.000000,0.000000,0.072435,0.098948,0.272009,0.375485,0.317028,0.443198,0.328948,0.081921,0.104236,0.628645,NO
1.4.1,lang/java/src/java/org/apache/avro/mapred/Pair.java,2.315472,0.000000,0.000000,0.000000,0.000000,0.000000,0.000000,0.000000,0.000000,0.000000,0.000000,0.085605,0.098948,0.321465,0.162838,0.179254,0.975036,0.657895,0.409606,0.260589,0.628645,YES
1.4.1,lang/java/src/java/org/apache/avro/mapred/FsInput.java,0.186732,0.000000,0.000000,0.000000,0.000000,0.000000,0.000000,0.000000,0.000000,0.000000,0.000000,0.023706,0.048137,0.178042,0.375485,0.420049,0.336831,0.000000,0.000000,0.052118,0.314322,NO
1.4.1,lang/java/src/java/org/apache/avro/mapred/AvroKeyComparator.java,0.143161,0.000000,0.000000,0.000000,0.000000,0.000000,0.000000,0.000000,0.000000,0.000000,0.000000,0.121165,0.098948,0.303331,0.375485,0.361950,0.319103,0.328948,0.040961,0.052118,0.314322,YES
1.4.1,lang/java/src/java/org/apache/avro/mapred/HadoopMapper.java,0.323668,0.000000,0.000000,0.000000,0.000000,0.000000,0.000000,0.000000,0.000000,0.000000,0.000000,0.048729,0.098948,0.365975,0.162838,0.182164,0.372287,0.328948,0.081921,0.260589,0.628645,NO
1.4.1,lang/java/src/java/org/apache/avro/mapred/HadoopReducerBase.java,0.224078,0.000000,0.000000,0.000000,0.000000,0.000000,0.000000,0.000000,0.000000,0.000000,0.000000,0.048729,0.098948,0.365975,0.162838,0.182164,0.301375,0.328948,0.040961,0.416943,0.942967,NO
1.4.1,lang/java/src/java/org/apache/avro/mapred/AvroOutputFormat.java,0.379688,0.000000,0.000000,0.000000,0.000000,0.000000,0.000000,0.000000,0.000000,0.000000,0.000000,0.127750,0.098948,0.239862,0.375485,0.347588,0.407743,0.657895,0.204803,0.104236,0.314322,YES
1.4.1,lang/java/src/java/org/apache/avro/io/BinaryEncoder.java,1.157736,0.131000,0.487176,0.531930,1.265598,0.148287,0.219730,0.380687,0.104024,0.177395,0.294411,1.044386,1.160631,0.784374,1.059403,1.068975,0.691390,0.328948,0.245764,1.146592,0.942967,NO
1.4.1,lang/java/src/java/org/apache/avro/io/ParsingEncoder.java,0.224078,0.000000,0.000000,0.000000,0.000000,0.000000,0.000000,0.000000,0.000000,0.000000,0.000000,0.690111,1.160631,1.295750,0.860166,0.939170,0.425470,0.328948,0.122882,0.052118,0.314322,NO
1.4.1,lang/java/src/java/org/apache/avro/io/BlockingBinaryEncoder.java,2.626692,0.114625,0.487176,1.063860,1.265598,0.114067,0.169023,0.292836,0.062414,0.106437,0.176646,0.770449,1.160631,0.723295,0.950206,1.022503,2.198264,1.315791,1.884190,0.990239,1.571612,NO
1.4.1,lang/java/src/java/org/apache/avro/io/parsing/Parser.java,0.609990,0.000000,0.000000,1.063860,0.000000,0.000000,0.000000,0.000000,0.000000,0.000000,0.000000,0.766498,1.160631,0.639632,0.860166,0.743147,1.400507,1.315791,0.532488,0.156354,0.314322,NO
1.4.1,lang/java/src/java/org/apache/avro/io/parsing/ValidatingGrammarGenerator.java,0.510400,0.000000,0.000000,0.531930,0.000000,0.000000,0.000000,0.000000,0.000000,0.000000,0.000000,0.777034,1.160631,0.729477,0.860166,0.913828,0.762301,1.315791,0.737292,0.312707,1.571612,NO
1.4.1,lang/java/src/java/org/apache/avro/io/parsing/SkipParser.java,0.273873,0.000000,0.000000,0.531930,0.000000,0.000000,0.000000,0.000000,0.000000,0.000000,0.000000,0.757279,1.160631,0.710931,0.860166,0.895586,0.762301,0.986843,0.122882,0.104236,0.628645,NO
1.4.1,lang/java/src/java/org/apache/avro/io/parsing/Symbol.java,2.228331,0.000000,0.000000,1.063860,0.000000,0.000000,0.000000,0.000000,0.000000,0.000000,0.000000,0.791521,1.160631,0.457279,0.860166,0.805260,2.180536,0.986843,0.655370,0.729650,1.257289,NO
1.4.1,lang/java/src/java/org/apache/avro/io/parsing/ResolvingGrammarGenerator.java,2.190985,0.000000,0.000000,2.127719,0.000000,0.000000,0.000000,0.000000,0.000000,0.000000,0.000000,0.815227,1.160631,0.408178,0.860166,0.784141,1.489147,1.644738,3.768379,1.615653,1.885934,YES
1.4.1,lang/java/src/java/org/apache/avro/io/parsing/JsonGrammarGenerator.java,0.361015,0.000000,0.000000,1.063860,0.000000,0.000000,0.000000,0.000000,0.000000,0.000000,0.000000,0.775717,1.160631,0.728241,0.860166,0.886685,0.620478,1.315791,0.655370,0.208471,0.314322,NO
1.4.1,lang/java/src/java/org/apache/avro/io/DecoderFactory.java,0.473053,0.000000,0.000000,0.000000,0.000000,0.000000,0.000000,0.000000,0.000000,0.000000,0.000000,0.031608,0.064182,0.237389,0.454030,0.507916,2.535095,0.986843,0.327685,0.208471,0.942967,NO
1.4.1,lang/java/src/java/org/apache/avro/io/JsonDecoder.java,2.259453,0.000000,0.000000,1.063860,0.000000,0.000000,0.000000,0.000000,0.000000,0.000000,0.000000,0.812593,1.160631,0.554807,0.860166,0.900244,0.372287,1.644738,1.597465,0.208471,0.942967,NO
1.4.1,lang/java/src/java/org/apache/avro/io/BinaryData.java,1.556097,0.000000,0.000000,0.000000,0.000000,0.000000,0.000000,0.000000,0.000000,0.000000,0.000000,0.724354,1.160631,0.777167,0.783537,0.710001,0.638206,1.973686,2.703403,1.407182,2.200256,NO
1.4.1,lang/java/src/java/org/apache/avro/io/BinaryDecoder.java,4.033403,0.000000,0.000000,0.000000,0.000000,0.000000,0.000000,0.000000,0.000000,0.000000,0.000000,0.757279,1.160631,0.710931,0.915723,0.633253,4.538352,2.960529,2.539560,2.605892,2.828901,NO
1.4.1,lang/java/src/java/org/apache/avro/generic/GenericDatumReader.java,1.674360,0.000000,0.000000,3.191579,0.000000,0.000000,0.000000,0.000000,0.000000,0.000000,0.000000,1.440805,1.160631,0.292459,1.059403,0.980415,1.542330,1.315791,2.129954,0.521178,1.257289,YES
1.4.1,lang/java/src/java/org/apache/avro/generic/GenericEnumSymbol.java,0.024898,0.000000,0.000000,0.000000,0.000000,0.000000,0.000000,0.000000,0.000000,0.000000,0.000000,1.010144,1.160631,1.083795,1.059403,1.091326,0.336831,0.000000,0.000000,0.052118,0.314322,NO
1.4.1,lang/java/src/java/org/apache/avro/generic/GenericRequestor.java,0.286322,0.000000,0.000000,1.063860,0.000000,0.000000,0.000000,0.000000,0.000000,0.000000,0.000000,1.157649,1.160631,0.668799,1.059403,1.061191,0.336831,0.657895,0.163843,0.260589,0.628645,NO
1.4.1,lang/java/src/java/org/apache/avro/generic/GenericDatumWriter.java,0.858966,0.049125,0.487176,2.127719,1.265598,0.011407,0.016902,0.029284,0.041610,0.070958,0.117764,1.255107,1.160631,0.428470,1.059403,1.029409,0.815485,0.657895,0.819213,0.052118,0.314322,NO
1.4.1,lang/java/src/java/org/apache/avro/generic/GenericResponder.java,0.180507,0.000000,0.000000,0.531930,0.000000,0.000000,0.000000,0.000000,0.000000,0.000000,0.000000,1.043069,1.160631,0.870427,1.059403,1.140153,0.319103,0.328948,0.040961,0.052118,0.314322,NO
1.4.1,lang/java/src/java/org/apache/avro/generic/GenericData.java,2.825872,0.327500,0.487176,3.191579,1.265598,0.319387,0.473264,0.819941,0.166438,0.283832,0.471057,1.431586,1.160631,0.335992,1.059403,0.957320,1.028220,3.947372,4.997199,4.221545,2.828901,YES
1.4.1,lang/java/src/java/org/apache/avro/tool/JsonToBinaryFragmentTool.java,0.329893,0.000000,0.000000,0.531930,0.000000,0.000000,0.000000,0.000000,0.000000,0.000000,0.000000,0.592653,1.160631,1.483683,0.551733,0.611087,0.319103,0.328948,0.122882,0.104236,0.628645,NO
1.4.1,lang/java/src/java/org/apache/avro/tool/RpcSendTool.java,0.566419,0.000000,0.000000,0.000000,0.000000,0.000000,0.000000,0.000000,0.000000,0.000000,0.000000,0.601872,1.160631,1.506762,0.549817,0.589397,0.354559,0.657895,0.163843,0.052118,0.314322,NO
1.4.1,lang/java/src/java/org/apache/avro/tool/RpcReceiveTool.java,0.846517,0.000000,0.000000,0.000000,0.000000,0.000000,0.000000,0.000000,0.000000,0.000000,0.000000,0.632163,1.160631,1.186946,0.549817,0.591573,0.407743,0.657895,0.368646,0.156354,0.942967,NO
1.4.1,lang/java/src/java/org/apache/avro/tool/Main.java,0.404585,0.000000,0.000000,0.000000,0.000000,0.000000,0.000000,0.000000,0.000000,0.000000,0.000000,0.759913,1.160631,0.439018,0.674340,0.659013,0.425470,0.657895,0.245764,0.052118,0.314322,YES
1.4.1,lang/java/src/java/org/apache/avro/tool/Util.java,0.479278,0.000000,0.000000,0.000000,0.000000,0.000000,0.000000,0.000000,0.000000,0.000000,0.000000,1.043069,1.160631,0.712168,1.059403,0.755724,0.620478,0.986843,0.245764,0.312707,0.942967,NO
1.4.1,lang/java/src/java/org/apache/avro/tool/BinaryFragmentToJsonTool.java,0.385912,0.000000,0.000000,0.000000,0.000000,0.000000,0.000000,0.000000,0.000000,0.000000,0.000000,0.620310,1.160631,1.552921,0.551733,0.611074,0.319103,0.328948,0.122882,0.104236,0.628645,YES
1.4.1,lang/java/src/java/org/apache/avro/tool/IdlTool.java,0.292546,0.000000,0.000000,0.000000,0.000000,0.000000,0.000000,0.000000,0.000000,0.000000,0.000000,0.650601,1.160631,0.977252,0.549817,0.514611,0.372287,0.328948,0.122882,0.208471,0.942967,NO
1.4.1,lang/java/src/java/org/apache/avro/tool/DataFileWriteTool.java,0.429483,0.000000,0.000000,0.000000,0.000000,0.000000,0.000000,0.000000,0.000000,0.000000,0.000000,0.625578,1.160631,1.174582,0.551733,0.605695,0.319103,0.657895,0.163843,0.104236,0.628645,NO
1.4.1,lang/java/src/java/org/apache/avro/tool/FromTextTool.java,0.385912,0.000000,0.000000,0.000000,0.000000,0.000000,0.000000,0.000000,0.000000,0.000000,0.000000,0.633480,1.160631,0.951535,0.551733,0.451452,0.390015,0.328948,0.122882,0.052118,0.314322,NO
1.4.1,lang/java/src/java/org/apache/avro/util/Utf8.java,0.504175,0.147375,0.487176,0.531930,1.265598,0.148287,0.219730,0.380687,0.083219,0.141916,0.235529,1.101017,1.160631,0.751733,1.059403,0.924725,0.567294,0.657895,0.368646,0.677532,1.257289,NO
1.4.1,lang/java/src/java/org/apache/avro/util/WeakIdentityHashMap.java,0.740702,0.000000,0.000000,0.000000,0.000000,0.000000,0.000000,0.000000,0.000000,0.000000,0.000000,0.006585,0.013371,0.049456,0.124523,0.139302,0.585022,0.328948,0.204803,1.094475,1.257289,NO
1.4.1,lang/java/src/java/org/apache/avro/file/DeflateCodec.java,0.603766,0.000000,0.000000,0.531930,0.000000,0.000000,0.000000,0.000000,0.000000,0.000000,0.000000,0.094824,0.064182,0.118695,0.507671,0.411792,0.549566,0.328948,0.245764,0.260589,0.942967,NO
1.4.1,lang/java/src/java/org/apache/avro/file/DataFileWriter.java,1.543648,0.000000,0.000000,2.127719,0.000000,0.000000,0.000000,0.000000,0.000000,0.000000,0.000000,1.201110,1.160631,0.429562,1.059403,0.881726,1.524602,0.657895,0.737292,0.469061,0.942967,YES
1.4.1,lang/java/src/java/org/apache/avro/file/CodecFactory.java,0.224078,0.000000,0.000000,0.000000,0.000000,0.000000,0.000000,0.000000,0.000000,0.000000,0.000000,0.032925,0.042788,0.123640,0.507671,0.563185,0.496382,0.328948,0.040961,0.104236,0.314322,NO
1.4.1,lang/java/src/java/org/apache/avro/file/NullCodec.java,0.217854,0.000000,0.000000,0.000000,0.000000,0.000000,0.000000,0.000000,0.000000,0.000000,0.000000,1.077311,1.160631,0.622386,1.059403,0.851189,0.336831,0.328948,0.040961,0.156354,0.942967,NO
1.4.1,lang/java/src/java/org/apache/avro/file/DataFileReader.java,0.765600,0.040938,0.487176,1.063860,1.265598,0.045627,0.067609,0.117134,0.031207,0.053219,0.088323,1.161600,1.160631,0.545253,1.059403,0.963270,0.620478,0.986843,0.368646,0.521178,2.514579,NO
1.4.1,lang/java/src/java/org/apache/avro/file/DataFileStream.java,1.462731,0.000000,0.000000,1.063860,0.000000,0.000000,0.000000,0.000000,0.000000,0.000000,0.000000,0.725671,1.160631,0.545006,0.549817,0.487279,1.081404,0.986843,1.105937,0.781768,1.257289,NO
1.4.1,lang/java/src/java/org/apache/avro/reflect/InduceSchemaTool.java,0.304995,0.000000,0.000000,0.000000,0.000000,0.000000,0.000000,0.000000,0.000000,0.000000,0.000000,0.607140,1.160631,0.759975,0.628362,0.691927,0.354559,0.986843,0.204803,0.052118,0.314322,NO
1.4.1,lang/java/src/java/org/apache/avro/reflect/ReflectData.java,2.184760,0.000000,0.000000,3.723509,0.000000,0.000000,0.000000,0.000000,0.000000,0.000000,0.000000,1.422367,1.160631,0.314192,1.059403,0.896323,1.223228,3.947372,3.031088,2.449539,3.457546,YES
1.4.1,lang/java/src/java/org/apache/avro/reflect/ReflectResponder.java,0.192956,0.000000,0.000000,1.063860,0.000000,0.000000,0.000000,0.000000,0.000000,0.000000,0.000000,1.289349,1.160631,0.537972,1.059403,1.051086,0.336831,0.328948,0.040961,0.052118,0.314322,NO
1.4.1,lang/java/src/java/org/apache/avro/reflect/ReflectDatumReader.java,0.722029,0.000000,0.000000,2.127719,0.000000,0.000000,0.000000,0.000000,0.000000,0.000000,0.000000,1.326226,1.160631,0.398418,1.059403,0.996979,0.407743,0.657895,0.614410,0.625414,1.257289,NO
1.4.1,lang/java/src/java/org/apache/avro/reflect/ReflectDatumWriter.java,0.529073,0.000000,0.000000,2.659649,0.000000,0.000000,0.000000,0.000000,0.000000,0.000000,0.000000,1.368370,1.160631,0.395268,1.059403,0.983118,0.425470,0.328948,0.286725,0.469061,0.942967,YES
1.4.1,lang/java/src/java/org/apache/avro/Protocol.java,1.991804,0.000000,0.000000,1.063860,0.000000,0.000000,0.000000,0.000000,0.000000,0.000000,0.000000,1.282764,1.160631,0.418872,1.059403,1.057094,1.258683,0.986843,1.720347,1.824124,1.257289,YES
1.5.0,lang/java/mapred/src/main/java/org/apache/avro/mapred/AvroReducer.java,0.112039,0.000000,0.487176,0.000000,1.265598,0.000000,0.000000,0.000000,0.000000,0.000000,0.000000,0.497828,0.863787,1.246294,0.660930,0.636350,0.443198,0.328948,0.081921,0.104236,0.628645,NO
1.5.0,lang/java/mapred/src/main/java/org/apache/avro/mapred/SequenceFileReader.java,1.201307,2.022314,0.974352,0.000000,2.531197,2.817450,4.174861,3.616526,2.569394,4.381659,3.635973,0.438563,0.863787,1.646888,0.337170,0.377187,0.390015,0.328948,0.368646,1.146592,1.885934,NO
1.5.0,lang/java/mapred/src/main/java/org/apache/avro/mapred/AvroOutputFormat.java,0.423258,0.131000,1.461528,0.531930,2.531197,0.159694,0.202827,0.136657,0.124829,0.212874,0.117764,0.572898,0.863787,0.614669,0.660930,0.608177,0.443198,0.657895,0.204803,0.104236,0.314322,NO
1.5.0,lang/java/mapred/src/main/java/org/apache/avro/mapred/AvroRecordReader.java,0.336117,0.245625,1.948704,0.531930,3.796795,0.205320,0.219730,0.131776,0.062414,0.053219,0.044162,0.534705,0.863787,0.669306,0.660930,0.622674,0.336831,0.328948,0.122882,0.052118,0.314322,NO
1.5.0,lang/java/mapred/src/main/java/org/apache/avro/mapred/AvroSerialization.java,0.566419,0.204688,1.948704,0.531930,2.531197,0.193914,0.135218,0.124455,0.114426,0.106437,0.080963,0.670356,0.863787,0.719233,0.660930,0.614726,0.514110,0.657895,0.286725,0.052118,0.314322,NO
1.5.0,lang/java/mapred/src/main/java/org/apache/avro/mapred/HadoopMapper.java,0.323668,0.000000,0.487176,0.000000,1.265598,0.000000,0.000000,0.000000,0.000000,0.000000,0.000000,0.474122,0.863787,1.780420,0.448283,0.501487,0.372287,0.328948,0.081921,0.260589,0.628645,NO
1.5.0,lang/java/mapred/src/main/java/org/apache/avro/mapred/FsInput.java,0.186732,0.000000,0.487176,0.000000,1.265598,0.000000,0.000000,0.000000,0.000000,0.000000,0.000000,0.449099,0.863787,1.686453,0.660930,0.739371,0.336831,0.000000,0.000000,0.052118,0.314322,NO
1.5.0,lang/java/mapred/src/main/java/org/apache/avro/mapred/AvroKeyComparator.java,0.143161,0.049125,1.461528,0.531930,2.531197,0.034220,0.033805,0.029284,0.000000,0.000000,0.000000,0.567630,0.863787,0.710519,0.660930,0.643102,0.319103,0.328948,0.040961,0.052118,0.314322,NO
1.5.0,lang/java/mapred/src/main/java/org/apache/avro/mapred/AvroMapper.java,0.068468,0.000000,0.487176,0.000000,1.265598,0.000000,0.000000,0.000000,0.000000,0.000000,0.000000,0.497828,0.863787,1.246294,0.660930,0.642932,0.407743,0.000000,0.000000,0.104236,0.314322,NO
1.5.0,lang/java/mapred/src/main/java/org/apache/avro/mapred/AvroWrapper.java,0.161834,0.024563,0.974352,1.063860,2.531197,0.034220,0.050707,0.043925,0.031207,0.053219,0.044162,1.152381,1.160631,0.865482,1.093886,0.957010,0.390015,0.657895,0.286725,0.364825,0.628645,NO
1.5.0,lang/java/mapred/src/main/java/org/apache/avro/mapred/HadoopReducerBase.java,0.224078,0.000000,0.487176,0.000000,1.265598,0.000000,0.000000,0.000000,0.000000,0.000000,0.000000,0.474122,0.863787,1.780420,0.448283,0.501487,0.301375,0.328948,0.040961,0.416943,0.942967,NO
1.5.0,lang/java/mapred/src/main/java/org/apache/avro/mapred/AvroInputFormat.java,0.186732,0.000000,0.487176,0.000000,1.265598,0.000000,0.000000,0.000000,0.000000,0.000000,0.000000,0.449099,0.863787,1.686453,0.660930,0.739371,0.319103,0.657895,0.081921,0.104236,0.314322,NO
1.5.0,lang/java/mapred/src/main/java/org/apache/avro/mapred/tether/TetherKeySerialization.java,0.336117,0.073688,1.461528,0.000000,2.531197,0.057033,0.050707,0.048806,0.031207,0.035479,0.029441,0.583434,0.863787,1.095453,0.517249,0.529454,0.319103,0.328948,0.040961,0.156354,0.628645,NO
1.5.0,lang/java/mapred/src/main/java/org/apache/avro/mapred/tether/TetheredProcess.java,0.553971,0.049125,1.461528,0.000000,2.531197,0.034220,0.033805,0.029284,0.000000,0.000000,0.000000,0.620310,0.863787,0.931753,0.517249,0.559878,0.460926,0.657895,0.286725,0.312707,0.942967,NO
1.5.0,lang/java/mapred/src/main/java/org/apache/avro/mapred/tether/TetherMapRunner.java,0.342341,0.000000,0.487176,0.000000,1.265598,0.000000,0.000000,0.000000,0.000000,0.000000,0.000000,0.474122,0.863787,1.780420,0.517249,0.578638,0.407743,0.657895,0.204803,0.208471,0.628645,NO
1.5.0,lang/java/mapred/src/main/java/org/apache/avro/mapred/tether/TetherOutputService.java,0.410810,0.000000,0.487176,0.000000,1.265598,0.000000,0.000000,0.000000,0.000000,0.000000,0.000000,0.510999,0.863787,1.279264,0.517249,0.569989,0.301375,0.328948,0.122882,0.364825,1.257289,NO
1.5.0,lang/java/mapred/src/main/java/org/apache/avro/mapred/tether/TetherRecordReader.java,0.311219,0.000000,0.487176,0.000000,1.265598,0.000000,0.000000,0.000000,0.000000,0.000000,0.000000,0.497828,0.863787,1.246294,0.660930,0.690114,0.319103,0.328948,0.081921,0.052118,0.314322,NO
1.5.0,lang/java/mapred/src/main/java/org/apache/avro/mapred/tether/TetherReducer.java,0.329893,0.000000,0.487176,0.000000,1.265598,0.000000,0.000000,0.000000,0.000000,0.000000,0.000000,0.474122,0.863787,1.780420,0.517249,0.578638,0.354559,0.328948,0.245764,0.156354,0.314322,NO
1.5.0,lang/java/mapred/src/main/java/org/apache/avro/mapred/tether/TetherInputFormat.java,0.192956,0.000000,0.487176,0.000000,1.265598,0.000000,0.000000,0.000000,0.000000,0.000000,0.000000,0.497828,0.863787,1.246294,0.660930,0.707225,0.319103,0.657895,0.081921,0.104236,0.314322,NO
1.5.0,lang/java/mapred/src/main/java/org/apache/avro/mapred/tether/TetherData.java,0.074693,0.000000,0.487176,0.000000,1.265598,0.000000,0.000000,0.000000,0.000000,0.000000,0.000000,1.463194,1.160631,1.098914,1.344848,1.197312,0.407743,0.000000,0.000000,0.052118,0.314322,NO
1.5.0,lang/java/mapred/src/main/java/org/apache/avro/mapred/tether/TetherKeyComparator.java,0.205405,0.032750,0.974352,0.000000,1.265598,0.022813,0.033805,0.029284,0.000000,0.000000,0.000000,0.504414,0.863787,0.947084,0.660930,0.653356,0.319103,0.328948,0.122882,0.104236,0.628645,NO
1.5.0,lang/java/mapred/src/main/java/org/apache/avro/mapred/tether/TetherJob.java,0.311219,0.597688,0.974352,0.531930,1.265598,0.045627,0.067609,0.058567,0.676156,1.153068,0.956835,0.530754,0.863787,0.996540,0.517249,0.433634,0.478654,0.328948,0.081921,0.156354,0.628645,NO
1.5.0,lang/java/mapred/src/main/java/org/apache/avro/mapred/tether/TetherPartitioner.java,0.186732,0.000000,0.487176,0.000000,1.265598,0.000000,0.000000,0.000000,0.000000,0.000000,0.000000,0.475439,0.863787,1.190243,0.517249,0.578638,0.319103,0.328948,0.081921,0.104236,0.314322,NO
1.5.0,lang/java/mapred/src/main/java/org/apache/avro/mapred/HadoopReducer.java,0.192956,0.000000,0.487176,0.000000,1.265598,0.000000,0.000000,0.000000,0.000000,0.000000,0.000000,0.474122,0.863787,1.780420,0.448283,0.501487,0.336831,0.000000,0.000000,0.052118,0.314322,NO
1.5.0,lang/java/mapred/src/main/java/org/apache/avro/mapred/Pair.java,2.744955,0.573126,0.974352,0.531930,2.531197,0.798468,1.183159,1.024926,0.728168,1.241766,1.030438,0.525486,0.863787,0.986649,0.448283,0.455502,0.992764,0.657895,0.409606,0.260589,0.628645,NO
1.5.0,lang/java/mapred/src/main/java/org/apache/avro/mapred/AvroJob.java,0.690907,0.442125,1.948704,0.531930,3.796795,0.524707,0.354948,0.336761,0.395291,0.354790,0.279690,0.588702,0.863787,0.552672,0.660930,0.535643,0.815485,0.328948,0.245764,0.156354,0.628645,NO
1.5.0,lang/java/avro/src/main/java/org/apache/avro/Protocol.java,1.991804,0.000000,0.487176,1.063860,1.265598,0.000000,0.000000,0.000000,0.000000,0.000000,0.000000,1.708158,1.160631,0.534538,1.344848,1.376417,1.258683,0.986843,1.720347,1.824124,1.257289,YES
1.5.0,lang/java/avro/src/main/java/org/apache/avro/specific/SpecificDatumWriter.java,0.186732,0.032750,0.974352,1.063860,2.531197,0.034220,0.050707,0.043925,0.020805,0.035479,0.029441,1.586993,1.160631,0.794595,1.344848,1.345839,0.336831,0.328948,0.040961,0.156354,0.628645,NO
1.5.0,lang/java/avro/src/main/java/org/apache/avro/specific/SpecificData.java,0.995902,0.147375,2.923057,2.659649,3.796795,0.148287,0.118316,0.063448,0.083219,0.124177,0.039255,1.336762,1.160631,0.478076,1.065150,0.961883,0.496382,3.947372,1.843229,1.198710,2.514579,YES
1.5.0,lang/java/avro/src/main/java/org/apache/avro/specific/SpecificDatumReader.java,0.404585,0.106438,0.974352,1.595789,2.531197,0.114067,0.169023,0.146418,0.072817,0.124177,0.103044,1.689719,1.160631,0.576838,1.344848,1.356795,0.531838,0.657895,0.368646,0.260589,0.942967,NO
1.5.0,lang/java/avro/src/main/java/org/apache/avro/specific/SpecificExceptionBase.java,0.112039,0.016375,0.974352,1.063860,1.265598,0.011407,0.016902,0.014642,0.000000,0.000000,0.000000,1.536947,1.160631,1.049368,1.344848,1.412469,0.372287,0.328948,0.122882,0.312707,0.942967,NO
1.5.0,lang/java/avro/src/main/java/org/apache/avro/specific/SpecificRecordBase.java,0.168058,0.000000,0.487176,1.595789,1.265598,0.000000,0.000000,0.000000,0.000000,0.000000,0.000000,1.155015,1.160631,1.084325,1.241398,1.222015,0.372287,0.328948,0.122882,0.208471,0.628645,NO
1.5.0,lang/java/avro/src/main/java/org/apache/avro/Schema.java,6.678768,0.532188,3.897409,6.383158,3.796795,0.604554,0.321143,0.194004,0.426499,0.266093,0.150886,1.943902,1.160631,0.280758,1.344848,1.225239,3.510131,2.960529,7.168113,11.205336,6.286447,NO
1.5.0,lang/java/avro/src/main/java/org/apache/avro/reflect/ReflectDatumWriter.java,0.473053,0.171938,1.948704,3.191579,3.796795,0.057033,0.067609,0.036605,0.156036,0.230614,0.110404,1.849077,1.160631,0.462909,1.344848,1.254027,0.425470,0.328948,0.245764,0.469061,0.942967,YES
1.5.0,lang/java/avro/src/main/java/org/apache/avro/reflect/ReflectDatumReader.java,0.628663,0.270188,0.974352,2.127719,2.531197,0.114067,0.169023,0.146418,0.135231,0.230614,0.191367,1.764789,1.160631,0.490898,1.344848,1.269691,0.443198,0.657895,0.450567,0.625414,1.257289,NO
1.5.0,lang/java/avro/src/main/java/org/apache/avro/reflect/ReflectData.java,2.471082,0.442125,1.948704,4.255438,3.796795,0.581741,0.828211,0.373366,0.499315,0.833757,0.353293,1.971559,1.160631,0.389662,1.344848,1.187584,1.223228,3.947372,3.481655,2.449539,3.457546,YES
1.5.0,lang/java/avro/src/main/java/org/apache/avro/io/ParsingEncoder.java,0.224078,0.000000,0.487176,0.000000,1.265598,0.000000,0.000000,0.000000,0.000000,0.000000,0.000000,1.115505,1.160631,1.675573,1.145611,1.258493,0.425470,0.328948,0.122882,0.052118,0.314322,NO
1.5.0,lang/java/avro/src/main/java/org/apache/avro/io/parsing/ResolvingGrammarGenerator.java,2.259453,0.327500,2.435880,2.659649,5.062393,0.296574,0.169023,0.152275,0.124829,0.088698,0.070659,1.336762,1.160631,0.501979,1.145611,1.038279,1.489147,1.644738,3.768379,1.615653,1.885934,NO
1.5.0,lang/java/avro/src/main/java/org/apache/avro/io/parsing/ValidatingGrammarGenerator.java,0.510400,0.016375,0.974352,0.531930,2.531197,0.011407,0.016902,0.014642,0.000000,0.000000,0.000000,1.230084,1.160631,0.923840,1.145611,1.218441,0.762301,1.315791,0.737292,0.312707,1.571612,NO
1.5.0,lang/java/avro/src/main/java/org/apache/avro/io/parsing/SkipParser.java,0.273873,0.000000,0.487176,0.531930,1.265598,0.000000,0.000000,0.000000,0.000000,0.000000,0.000000,1.182672,1.160631,0.986924,1.145611,1.214909,0.762301,0.986843,0.122882,0.104236,0.628645,NO
1.5.0,lang/java/avro/src/main/java/org/apache/avro/io/parsing/Symbol.java,2.228331,0.000000,0.487176,1.063860,1.265598,0.000000,0.000000,0.000000,0.000000,0.000000,0.000000,1.216914,1.160631,0.652820,1.145611,1.124583,2.180536,0.986843,0.655370,0.729650,1.257289,YES
1.5.0,lang/java/avro/src/main/java/org/apache/avro/io/parsing/JsonGrammarGenerator.java,0.361015,0.000000,0.487176,1.063860,1.265598,0.000000,0.000000,0.000000,0.000000,0.000000,0.000000,1.201110,1.160631,1.002310,1.145611,1.206008,0.620478,1.315791,0.655370,0.208471,0.314322,NO
1.5.0,lang/java/avro/src/main/java/org/apache/avro/io/parsing/Parser.java,0.609990,0.000000,0.487176,1.063860,1.265598,0.000000,0.000000,0.000000,0.000000,0.000000,0.000000,1.191891,1.160631,0.895155,1.145611,1.062469,1.400507,1.315791,0.532488,0.156354,0.314322,NO
1.5.0,lang/java/avro/src/main/java/org/apache/avro/io/BlockingBinaryEncoder.java,2.259453,1.973189,1.948704,1.063860,3.796795,1.038008,1.352182,0.666202,0.738571,1.153068,0.522579,1.299885,1.160631,0.887512,1.235651,1.015125,2.375543,1.315791,1.433623,0.938121,1.257289,NO
1.5.0,lang/java/avro/src/main/java/org/apache/avro/io/BinaryDecoder.java,4.027179,1.088939,1.461528,0.000000,2.531197,0.695807,0.895820,0.595433,0.322475,0.372530,0.304224,1.235352,1.160631,0.843451,1.201168,0.870278,4.378800,1.973686,2.580521,2.605892,2.828901,NO
1.5.0,lang/java/avro/src/main/java/org/apache/avro/io/BinaryData.java,2.153638,1.162626,1.948704,0.000000,2.531197,1.574122,2.112784,1.010284,1.393922,2.217439,0.986276,1.265643,1.160631,0.864133,1.068982,0.821402,1.205500,2.960529,3.276852,1.407182,2.200256,NO
1.5.0,lang/java/avro/src/main/java/org/apache/avro/io/BinaryEncoder.java,0.423258,2.104190,1.948704,0.531930,2.531197,0.730028,0.845113,0.468538,1.549958,2.465792,1.096680,1.619918,1.160631,0.935862,1.344848,1.116490,0.638206,0.328948,0.122882,1.146592,0.942967,NO
1.5.0,lang/java/avro/src/main/java/org/apache/avro/io/Encoder.java,0.248976,0.253813,1.948704,0.000000,3.796795,0.262354,0.287339,0.168381,0.239255,0.283832,0.169286,1.535630,1.160631,0.887166,1.344848,1.367683,3.900146,0.328948,0.040961,0.104236,0.314322,NO
1.5.0,lang/java/avro/src/main/java/org/apache/avro/io/DecoderFactory.java,0.585092,2.292502,1.948704,0.000000,2.531197,2.076016,2.991702,1.332404,0.873802,1.490119,0.618263,0.578166,0.863787,0.868449,0.739475,0.392289,3.545587,0.328948,0.245764,0.208471,0.942967,NO
1.5.0,lang/java/avro/src/main/java/org/apache/avro/io/JsonDecoder.java,2.334146,0.728688,1.461528,1.063860,2.531197,0.730028,0.980332,0.624717,0.405694,0.603143,0.382734,1.299885,1.160631,0.697331,1.145611,1.045937,0.833213,1.644738,1.720347,0.208471,0.942967,NO
1.5.0,lang/java/avro/src/main/java/org/apache/avro/generic/GenericData.java,3.398516,1.793064,4.384585,4.255438,3.796795,2.030389,0.794407,0.579165,1.425129,0.798278,0.448159,1.907026,1.160631,0.367243,1.344848,1.161862,1.258683,3.947372,5.652569,3.752485,2.828901,YES
1.5.0,lang/java/avro/src/main/java/org/apache/avro/generic/GenericEnumSymbol.java,0.024898,0.016375,0.974352,0.000000,2.531197,0.011407,0.016902,0.014642,0.000000,0.000000,0.000000,1.463194,1.160631,1.221016,1.344848,1.385160,0.336831,0.000000,0.000000,0.052118,0.314322,NO
1.5.0,lang/java/avro/src/main/java/org/apache/avro/generic/GenericDatumReader.java,1.705482,0.974313,3.897409,3.191579,3.796795,0.752841,0.270436,0.241590,0.426499,0.248353,0.150886,1.962340,1.160631,0.342742,1.344848,1.258007,1.489147,1.315791,2.170914,0.521178,1.257289,YES
1.5.0,lang/java/avro/src/main/java/org/apache/avro/file/DataFileWriter.java,1.580995,0.335688,2.435880,2.659649,2.531197,0.262354,0.304241,0.134705,0.052012,0.088698,0.029441,1.701572,1.160631,0.491518,1.344848,1.162048,1.524602,0.657895,0.696331,0.469061,0.942967,YES
1.5.0,lang/java/avro/src/main/java/org/apache/avro/file/DataFileStream.java,1.624565,0.646813,2.435880,1.063860,3.796795,0.661587,0.608482,0.339690,0.384889,0.301572,0.217864,1.270911,1.160631,0.636335,0.835262,0.706602,1.258683,0.986843,1.105937,0.781768,1.257289,NO
1.5.0,lang/java/avro/src/main/java/org/apache/avro/file/NullCodec.java,0.217854,0.000000,0.487176,0.000000,1.265598,0.000000,0.000000,0.000000,0.000000,0.000000,0.000000,1.502704,1.160631,0.806134,1.344848,1.170511,0.336831,0.328948,0.040961,0.156354,0.942967,NO
1.5.0,lang/java/avro/src/main/java/org/apache/avro/file/DeflateCodec.java,0.603766,0.000000,0.487176,0.531930,1.265598,0.000000,0.000000,0.000000,0.000000,0.000000,0.000000,0.520218,0.863787,0.558147,0.793115,0.731115,0.549566,0.328948,0.245764,0.260589,0.942967,NO
1.5.0,lang/java/avro/src/main/java/org/apache/avro/file/CodecFactory.java,0.224078,0.000000,0.487176,0.000000,1.265598,0.000000,0.000000,0.000000,0.000000,0.000000,0.000000,0.458318,0.863787,1.147381,0.793115,0.882508,0.496382,0.328948,0.040961,0.104236,0.314322,NO
1.5.0,lang/java/avro/src/main/java/org/apache/avro/file/DataFileReader.java,1.051922,0.761438,3.410233,1.063860,3.796795,0.969568,0.557775,0.355587,0.800985,0.532185,0.323852,1.656794,1.160631,0.592531,1.344848,1.199385,0.886397,0.986843,0.573449,0.521178,2.514579,NO
1.5.0,lang/java/avro/src/main/java/org/apache/avro/util/Utf8.java,0.504175,0.278375,1.461528,0.531930,2.531197,0.239540,0.219730,0.204985,0.083219,0.141916,0.078510,1.580408,1.160631,0.913036,1.344848,1.189272,0.567294,0.657895,0.409606,0.573296,1.571612,NO
1.5.0,lang/java/avro/src/main/java/org/apache/avro/util/WeakIdentityHashMap.java,0.740702,0.000000,0.487176,0.000000,1.265598,0.000000,0.000000,0.000000,0.000000,0.000000,0.000000,0.431978,0.863787,1.622160,0.409968,0.458625,0.585022,0.328948,0.204803,1.094475,1.257289,NO
1.5.0,lang/java/ipc/src/main/java/org/apache/avro/ipc/RPCContext.java,0.591317,0.343875,0.974352,1.595789,2.531197,0.353607,0.523970,0.453896,0.208048,0.354790,0.294411,1.120773,1.160631,0.841743,1.128370,0.874934,1.613242,0.328948,0.163843,0.104236,0.314322,NO
1.5.0,lang/java/ipc/src/main/java/org/apache/avro/ipc/NettyTransportCodec.java,0.690907,0.000000,0.487176,0.000000,1.265598,0.000000,0.000000,0.000000,0.000000,0.000000,0.000000,0.445148,0.863787,1.114411,0.486597,0.532544,0.815485,0.657895,0.286725,0.312707,0.942967,NO
1.5.0,lang/java/ipc/src/main/java/org/apache/avro/ipc/SaslSocketTransceiver.java,1.942009,3.193128,1.461528,0.000000,2.531197,4.448605,6.574983,3.806869,4.056938,6.900670,3.827340,0.532071,0.863787,1.332018,0.337170,0.376456,0.638206,1.315791,1.556504,2.501656,3.457546,YES
1.5.0,lang/java/ipc/src/main/java/org/apache/avro/ipc/SocketTransceiver.java,0.497951,0.090063,1.461528,0.531930,2.531197,0.091253,0.084511,0.078090,0.052012,0.053219,0.049068,1.490851,1.160631,0.799776,1.344848,1.376760,0.443198,0.986843,0.409606,0.208471,0.628645,NO
1.5.0,lang/java/ipc/src/main/java/org/apache/avro/ipc/Transceiver.java,0.143161,0.000000,0.487176,0.000000,1.265598,0.000000,0.000000,0.000000,0.000000,0.000000,0.000000,1.440805,1.160631,1.202333,1.344848,1.326274,0.638206,0.000000,0.000000,0.156354,0.628645,NO
1.5.0,lang/java/ipc/src/main/java/org/apache/avro/ipc/RPCPlugin.java,0.062244,0.000000,0.487176,0.000000,1.265598,0.000000,0.000000,0.000000,0.000000,0.000000,0.000000,1.044386,1.160631,1.568747,1.128370,1.175586,0.975036,0.000000,0.000000,0.364825,0.314322,NO
1.5.0,lang/java/ipc/src/main/java/org/apache/avro/ipc/NettyServer.java,0.697131,0.065500,0.974352,0.531930,2.531197,0.068440,0.101414,0.087851,0.041610,0.070958,0.058882,0.483341,0.863787,0.726016,0.486597,0.518590,0.425470,0.328948,0.122882,0.104236,0.314322,NO
1.5.0,lang/java/ipc/src/main/java/org/apache/avro/ipc/stats/Histogram.java,1.027024,0.000000,0.487176,0.000000,1.265598,0.000000,0.000000,0.000000,0.000000,0.000000,0.000000,1.018046,1.160631,1.911478,0.819936,0.824221,1.240956,0.657895,0.450567,0.573296,1.885934,NO
1.5.0,lang/java/ipc/src/main/java/org/apache/avro/ipc/stats/Stopwatch.java,0.236527,0.000000,0.487176,0.000000,1.265598,0.000000,0.000000,0.000000,0.000000,0.000000,0.000000,1.012778,1.160631,2.535449,0.819936,0.917249,0.496382,0.657895,0.163843,0.208471,0.628645,NO
1.5.0,lang/java/ipc/src/main/java/org/apache/avro/ipc/stats/StatsServer.java,0.124488,0.000000,0.487176,0.000000,1.265598,0.000000,0.000000,0.000000,0.000000,0.000000,0.000000,0.449099,0.863787,1.686453,0.434872,0.486485,0.496382,0.000000,0.000000,0.052118,0.314322,NO
1.5.0,lang/java/ipc/src/main/java/org/apache/avro/ipc/stats/StatsPlugin.java,1.002126,0.000000,0.487176,0.000000,1.265598,0.000000,0.000000,0.000000,0.000000,0.000000,0.000000,1.054922,1.160631,1.320478,0.819936,0.596707,0.726845,0.328948,0.327685,0.052118,0.314322,NO
1.5.0,lang/java/ipc/src/main/java/org/apache/avro/ipc/stats/StatsServlet.java,1.207531,0.032750,0.487176,0.000000,1.265598,0.045627,0.067609,0.117134,0.041610,0.070958,0.117764,1.054922,1.160631,1.320478,0.819936,0.548053,0.744573,0.328948,0.286725,1.094475,1.571612,NO
1.5.0,lang/java/ipc/src/main/java/org/apache/avro/ipc/DatagramServer.java,0.280097,0.000000,0.487176,0.000000,1.265598,0.000000,0.000000,0.000000,0.000000,0.000000,0.000000,1.498753,1.160631,1.023292,1.344848,1.431063,0.336831,0.657895,0.122882,0.052118,0.314322,NO
1.5.0,lang/java/ipc/src/main/java/org/apache/avro/ipc/DatagramTransceiver.java,0.336117,0.000000,0.487176,0.000000,1.265598,0.000000,0.000000,0.000000,0.000000,0.000000,0.000000,1.025948,1.160631,1.926315,1.024920,1.136659,0.390015,0.657895,0.122882,0.104236,0.314322,NO
1.5.0,lang/java/ipc/src/main/java/org/apache/avro/ipc/NettyTransceiver.java,1.213756,0.081875,1.461528,0.000000,2.531197,0.091253,0.101414,0.078090,0.062414,0.070958,0.058882,0.451733,0.863787,0.848172,0.486597,0.526484,0.638206,0.328948,0.286725,0.260589,0.942967,NO
1.5.0,lang/java/ipc/src/main/java/org/apache/avro/ipc/Responder.java,1.139063,0.483063,4.384585,3.191579,2.531197,0.456267,0.185925,0.130149,0.260060,0.195135,0.081781,1.978144,1.160631,0.450200,1.344848,1.211881,0.762301,0.657895,0.819213,0.521178,0.628645,NO
1.5.0,lang/java/ipc/src/main/java/org/apache/avro/ipc/HttpTransceiver.java,0.491727,0.049125,0.974352,0.000000,2.531197,0.068440,0.101414,0.087851,0.062414,0.106437,0.088323,1.093115,1.160631,0.912190,1.011510,1.021176,0.390015,0.986843,0.245764,0.052118,0.314322,NO
1.5.0,lang/java/ipc/src/main/java/org/apache/avro/ipc/SocketServer.java,0.622439,0.564938,2.435880,0.531930,3.796795,0.581741,0.540873,0.298693,0.343279,0.354790,0.194311,1.651526,1.160631,0.729623,1.344848,1.308344,0.407743,0.657895,0.327685,0.521178,2.200256,YES
1.5.0,lang/java/ipc/src/main/java/org/apache/avro/ipc/trace/InMemorySpanStorage.java,0.280097,0.000000,0.487176,0.000000,1.265598,0.000000,0.000000,0.000000,0.000000,0.000000,0.000000,0.462269,0.863787,1.157273,0.419547,0.466768,0.425470,0.657895,0.163843,0.052118,0.314322,NO
1.5.0,lang/java/ipc/src/main/java/org/apache/avro/ipc/trace/FileSpanStorage.java,1.319570,0.000000,0.487176,0.000000,1.265598,0.000000,0.000000,0.000000,0.000000,0.000000,0.000000,0.439880,0.863787,1.651834,0.404221,0.452195,1.861433,0.986843,0.942095,0.938121,2.200256,NO
1.5.0,lang/java/ipc/src/main/java/org/apache/avro/ipc/trace/Trace.java,0.784273,0.000000,0.487176,0.000000,1.265598,0.000000,0.000000,0.000000,0.000000,0.000000,0.000000,0.517584,0.863787,0.971812,0.419547,0.468561,1.772794,1.644738,0.819213,0.469061,0.942967,NO
1.5.0,lang/java/ipc/src/main/java/org/apache/avro/ipc/trace/TraceCollection.java,1.232429,0.000000,0.487176,0.000000,1.265598,0.000000,0.000000,0.000000,0.000000,0.000000,0.000000,0.470171,0.863787,1.177055,0.385063,0.428958,1.365051,0.986843,0.573449,0.416943,1.571612,NO
1.5.0,lang/java/ipc/src/main/java/org/apache/avro/ipc/trace/TraceClientServlet.java,1.188858,0.057313,0.974352,0.000000,1.265598,0.045627,0.067609,0.058567,0.010402,0.017740,0.014721,0.576849,0.863787,1.083089,0.419547,0.431519,0.726845,0.986843,0.819213,0.625414,2.200256,NO
1.5.0,lang/java/ipc/src/main/java/org/apache/avro/ipc/trace/TracePlugin.java,1.668136,0.540376,1.948704,0.000000,3.796795,0.467674,0.557775,0.300157,0.478511,0.549925,0.338572,0.651918,0.863787,0.612019,0.419547,0.454561,1.365051,0.986843,1.105937,0.573296,2.514579,NO
1.5.0,lang/java/ipc/src/main/java/org/apache/avro/ipc/trace/Util.java,0.865190,0.000000,0.487176,0.000000,1.265598,0.000000,0.000000,0.000000,0.000000,0.000000,0.000000,0.507048,0.863787,0.761624,0.419547,0.457973,1.081404,1.315791,0.983055,0.521178,1.885934,NO
1.5.0,lang/java/ipc/src/main/java/org/apache/avro/ipc/trace/SpanAggregator.java,0.666010,0.024563,0.487176,0.531930,1.265598,0.011407,0.016902,0.029284,0.010402,0.017740,0.029441,0.489926,0.863787,0.919883,0.419547,0.458533,0.975036,1.973686,0.614410,0.312707,0.942967,NO
1.5.0,lang/java/ipc/src/main/java/org/apache/avro/ipc/SaslSocketServer.java,0.423258,0.835126,0.974352,0.000000,2.531197,1.163481,1.724032,1.493464,1.061045,1.809430,1.501495,0.435929,0.863787,1.636997,0.337170,0.377187,0.390015,0.328948,0.040961,0.781768,1.885934,NO
1.5.0,lang/java/ipc/src/main/java/org/apache/avro/ipc/Requestor.java,1.300897,0.581313,4.384585,2.127719,2.531197,0.604554,0.388752,0.172448,0.364084,0.372530,0.114493,1.986046,1.160631,0.481160,1.344848,1.193847,0.815485,0.657895,0.942095,0.469061,0.314322,YES
1.5.0,lang/java/tools/src/main/java/org/apache/avro/tool/DataFileWriteTool.java,0.666010,0.466688,1.461528,0.000000,3.796795,0.547521,0.777504,0.468538,0.405694,0.691841,0.382734,1.106286,1.160631,1.186946,0.837177,0.730063,0.319103,0.657895,0.327685,0.104236,0.628645,NO
1.5.0,lang/java/tools/src/main/java/org/apache/avro/tool/JsonToBinaryFragmentTool.java,0.348566,0.106438,1.461528,0.531930,2.531197,0.091253,0.084511,0.078090,0.031207,0.035479,0.029441,1.127358,1.160631,1.411147,0.837177,0.802087,0.319103,0.328948,0.122882,0.104236,0.628645,NO
1.5.0,lang/java/tools/src/main/java/org/apache/avro/tool/RpcSendTool.java,0.529073,0.155563,1.948704,0.000000,2.531197,0.079847,0.067609,0.051246,0.052012,0.088698,0.036801,1.190574,1.160631,1.277380,0.835262,0.823233,0.354559,0.657895,0.163843,0.052118,0.314322,NO
1.5.0,lang/java/tools/src/main/java/org/apache/avro/tool/RpcReceiveTool.java,0.865190,0.139188,1.948704,0.000000,2.531197,0.114067,0.084511,0.073209,0.031207,0.017740,0.022081,1.220865,1.160631,1.146145,0.835262,0.849521,0.407743,0.657895,0.368646,0.156354,0.942967,NO
1.5.0,lang/java/tools/src/main/java/org/apache/avro/tool/BinaryFragmentToJsonTool.java,0.385912,0.049125,1.461528,0.000000,2.531197,0.034220,0.033805,0.029284,0.000000,0.000000,0.000000,1.155015,1.160631,1.445767,0.837177,0.873665,0.319103,0.328948,0.122882,0.104236,0.628645,YES
1.5.0,lang/java/tools/src/main/java/org/apache/avro/tool/Main.java,0.392136,0.057313,1.948704,0.531930,2.531197,0.022813,0.016902,0.014642,0.052012,0.053219,0.036801,1.295934,1.160631,0.572527,0.959785,0.936296,0.425470,0.657895,0.245764,0.052118,0.314322,NO
1.5.0,lang/java/tools/src/main/java/org/apache/avro/tool/FromTextTool.java,0.385912,0.000000,0.487176,0.000000,1.265598,0.000000,0.000000,0.000000,0.000000,0.000000,0.000000,1.058873,1.160631,1.325423,0.837177,0.770775,0.390015,0.328948,0.122882,0.052118,0.314322,NO
1.5.0,lang/java/tools/src/main/java/org/apache/avro/tool/Util.java,0.485502,0.090063,0.974352,0.000000,2.531197,0.068440,0.101414,0.087851,0.010402,0.017740,0.014721,1.518509,1.160631,0.877275,1.344848,1.023371,0.620478,0.986843,0.245764,0.312707,0.942967,NO
1.5.0,lang/java/tools/src/main/java/org/apache/avro/tool/IdlTool.java,0.292546,0.016375,0.974352,0.000000,1.265598,0.011407,0.016902,0.014642,0.000000,0.000000,0.000000,1.172136,1.160631,1.257598,0.835262,0.820068,0.372287,0.328948,0.122882,0.208471,0.942967,NO
1.5.1,lang/java/mapred/src/main/java/org/apache/avro/mapred/AvroReducer.java,0.112039,0.360250,0.974352,0.000000,1.265598,0.250947,0.304241,0.322120,0.291267,0.248353,0.412175,0.595287,0.863787,0.894166,0.766295,0.564564,0.443198,0.328948,0.081921,0.104236,0.628645,NO
1.5.1,lang/java/mapred/src/main/java/org/apache/avro/mapred/SequenceFileReader.java,1.201307,0.000000,0.000000,0.000000,0.000000,0.000000,0.000000,0.000000,0.000000,0.000000,0.000000,0.438563,0.863787,1.646888,0.442535,0.495057,0.390015,0.328948,0.368646,1.146592,1.885934,NO
1.5.1,lang/java/mapred/src/main/java/org/apache/avro/mapred/AvroOutputFormat.java,0.423258,0.114625,0.974352,0.531930,1.265598,0.079847,0.101414,0.102493,0.104024,0.088698,0.147205,0.665088,0.863787,0.555007,0.766295,0.664172,0.443198,0.657895,0.204803,0.104236,0.314322,NO
1.5.1,lang/java/mapred/src/main/java/org/apache/avro/mapred/AvroRecordReader.java,0.336117,0.000000,0.000000,0.531930,0.000000,0.000000,0.000000,0.000000,0.000000,0.000000,0.000000,0.534705,0.863787,0.669306,0.766295,0.740545,0.336831,0.328948,0.122882,0.052118,0.314322,NO
1.5.1,lang/java/mapred/src/main/java/org/apache/avro/mapred/AvroSerialization.java,0.566419,0.000000,0.000000,0.531930,0.000000,0.000000,0.000000,0.000000,0.000000,0.000000,0.000000,0.670356,0.863787,0.719233,0.766295,0.732597,0.514110,0.657895,0.286725,0.052118,0.314322,NO
1.5.1,lang/java/mapred/src/main/java/org/apache/avro/mapred/HadoopMapper.java,0.323668,0.163750,0.974352,0.000000,1.265598,0.114067,0.135218,0.146418,0.124829,0.106437,0.176646,0.571581,0.863787,1.073197,0.553648,0.502423,0.372287,0.328948,0.081921,0.260589,0.628645,NO
1.5.1,lang/java/mapred/src/main/java/org/apache/avro/mapred/FsInput.java,0.186732,0.000000,0.000000,0.000000,0.000000,0.000000,0.000000,0.000000,0.000000,0.000000,0.000000,0.449099,0.863787,1.686453,0.766295,0.857242,0.336831,0.000000,0.000000,0.052118,0.314322,NO
1.5.1,lang/java/mapred/src/main/java/org/apache/avro/mapred/AvroKeyComparator.java,0.143161,0.000000,0.000000,0.531930,0.000000,0.000000,0.000000,0.000000,0.000000,0.000000,0.000000,0.567630,0.863787,0.710519,0.766295,0.760973,0.319103,0.328948,0.040961,0.052118,0.314322,NO
1.5.1,lang/java/mapred/src/main/java/org/apache/avro/mapred/AvroMapper.java,0.068468,0.327500,0.974352,0.000000,1.265598,0.228134,0.287339,0.292836,0.291267,0.248353,0.412175,0.595287,0.863787,0.894166,0.766295,0.563807,0.407743,0.000000,0.000000,0.104236,0.314322,NO
1.5.1,lang/java/mapred/src/main/java/org/apache/avro/mapred/AvroWrapper.java,0.161834,0.000000,0.000000,1.063860,0.000000,0.000000,0.000000,0.000000,0.000000,0.000000,0.000000,1.152381,1.160631,0.865482,1.199252,1.074881,0.390015,0.657895,0.286725,0.364825,0.628645,NO
1.5.1,lang/java/mapred/src/main/java/org/apache/avro/mapred/HadoopReducerBase.java,0.224078,0.081875,0.974352,0.000000,1.265598,0.057033,0.084511,0.073209,0.104024,0.088698,0.147205,0.571581,0.863787,1.073197,0.553648,0.536863,0.301375,0.328948,0.040961,0.416943,0.942967,NO
1.5.1,lang/java/mapred/src/main/java/org/apache/avro/mapred/AvroInputFormat.java,0.186732,0.000000,0.000000,0.000000,0.000000,0.000000,0.000000,0.000000,0.000000,0.000000,0.000000,0.449099,0.863787,1.686453,0.766295,0.857242,0.319103,0.657895,0.081921,0.104236,0.314322,NO
1.5.1,lang/java/mapred/src/main/java/org/apache/avro/mapred/tether/TetherKeySerialization.java,0.336117,0.000000,0.000000,0.000000,0.000000,0.000000,0.000000,0.000000,0.000000,0.000000,0.000000,0.583434,0.863787,1.095453,0.622615,0.647325,0.319103,0.328948,0.040961,0.156354,0.628645,NO
1.5.1,lang/java/mapred/src/main/java/org/apache/avro/mapred/tether/TetheredProcess.java,0.553971,0.000000,0.000000,0.000000,0.000000,0.000000,0.000000,0.000000,0.000000,0.000000,0.000000,0.620310,0.863787,0.931753,0.622615,0.677749,0.460926,0.657895,0.286725,0.312707,0.942967,NO
1.5.1,lang/java/mapred/src/main/java/org/apache/avro/mapred/tether/TetherMapRunner.java,0.342341,0.000000,0.000000,0.000000,0.000000,0.000000,0.000000,0.000000,0.000000,0.000000,0.000000,0.474122,0.863787,1.780420,0.622615,0.696509,0.407743,0.657895,0.204803,0.208471,0.628645,NO
1.5.1,lang/java/mapred/src/main/java/org/apache/avro/mapred/tether/TetherOutputService.java,0.410810,0.000000,0.000000,0.000000,0.000000,0.000000,0.000000,0.000000,0.000000,0.000000,0.000000,0.510999,0.863787,1.279264,0.622615,0.687860,0.301375,0.328948,0.122882,0.364825,1.257289,NO
1.5.1,lang/java/mapred/src/main/java/org/apache/avro/mapred/tether/TetherRecordReader.java,0.311219,0.000000,0.000000,0.000000,0.000000,0.000000,0.000000,0.000000,0.000000,0.000000,0.000000,0.497828,0.863787,1.246294,0.766295,0.807985,0.319103,0.328948,0.081921,0.052118,0.314322,NO
1.5.1,lang/java/mapred/src/main/java/org/apache/avro/mapred/tether/TetherReducer.java,0.329893,0.000000,0.000000,0.000000,0.000000,0.000000,0.000000,0.000000,0.000000,0.000000,0.000000,0.474122,0.863787,1.780420,0.622615,0.696509,0.354559,0.328948,0.245764,0.156354,0.314322,NO
1.5.1,lang/java/mapred/src/main/java/org/apache/avro/mapred/tether/TetherInputFormat.java,0.192956,0.000000,0.000000,0.000000,0.000000,0.000000,0.000000,0.000000,0.000000,0.000000,0.000000,0.497828,0.863787,1.246294,0.766295,0.825096,0.319103,0.657895,0.081921,0.104236,0.314322,NO
1.5.1,lang/java/mapred/src/main/java/org/apache/avro/mapred/tether/TetherData.java,0.074693,0.000000,0.000000,0.000000,0.000000,0.000000,0.000000,0.000000,0.000000,0.000000,0.000000,1.463194,1.160631,1.098914,1.450214,1.315183,0.407743,0.000000,0.000000,0.052118,0.314322,NO
1.5.1,lang/java/mapred/src/main/java/org/apache/avro/mapred/tether/TetherKeyComparator.java,0.205405,0.000000,0.000000,0.000000,0.000000,0.000000,0.000000,0.000000,0.000000,0.000000,0.000000,0.504414,0.863787,0.947084,0.766295,0.771227,0.319103,0.328948,0.122882,0.104236,0.628645,NO
1.5.1,lang/java/mapred/src/main/java/org/apache/avro/mapred/tether/TetherPartitioner.java,0.186732,0.000000,0.000000,0.000000,0.000000,0.000000,0.000000,0.000000,0.000000,0.000000,0.000000,0.475439,0.863787,1.190243,0.622615,0.696509,0.319103,0.328948,0.081921,0.104236,0.314322,NO
1.5.1,lang/java/mapred/src/main/java/org/apache/avro/mapred/HadoopReducer.java,0.192956,0.000000,0.000000,0.000000,0.000000,0.000000,0.000000,0.000000,0.000000,0.000000,0.000000,0.474122,0.863787,1.780420,0.553648,0.619357,0.336831,0.000000,0.000000,0.052118,0.314322,NO
1.5.1,lang/java/mapred/src/main/java/org/apache/avro/mapred/Pair.java,2.744955,0.000000,0.000000,0.531930,0.000000,0.000000,0.000000,0.000000,0.000000,0.000000,0.000000,0.525486,0.863787,0.986649,0.553648,0.573373,0.992764,0.657895,0.409606,0.260589,0.628645,NO
1.5.1,lang/java/mapred/src/main/java/org/apache/avro/mapred/AvroJob.java,0.690907,0.114625,0.974352,0.531930,1.265598,0.079847,0.118316,0.102493,0.145634,0.124177,0.206088,0.680892,0.863787,0.511376,0.766295,0.628730,0.815485,0.328948,0.245764,0.260589,0.628645,NO
1.5.1,lang/java/avro/src/main/java/org/apache/avro/Protocol.java,1.991804,0.000000,0.000000,1.063860,0.000000,0.000000,0.000000,0.000000,0.000000,0.000000,0.000000,1.708158,1.160631,0.534538,1.450214,1.494287,1.258683,0.986843,1.720347,1.824124,1.257289,YES
1.5.1,lang/java/avro/src/main/java/org/apache/avro/specific/SpecificDatumWriter.java,0.186732,0.000000,0.000000,1.063860,0.000000,0.000000,0.000000,0.000000,0.000000,0.000000,0.000000,1.586993,1.160631,0.794595,1.450214,1.463710,0.336831,0.328948,0.040961,0.104236,0.314322,NO
1.5.1,lang/java/avro/src/main/java/org/apache/avro/specific/SpecificData.java,0.995902,0.065500,0.974352,3.191579,1.265598,0.045627,0.033805,0.058567,0.000000,0.000000,0.000000,1.421050,1.160631,0.464027,1.170516,1.062291,0.496382,3.947372,1.843229,1.250828,2.514579,YES
1.5.1,lang/java/avro/src/main/java/org/apache/avro/specific/SpecificDatumReader.java,0.404585,0.000000,0.000000,1.595789,0.000000,0.000000,0.000000,0.000000,0.000000,0.000000,0.000000,1.689719,1.160631,0.576838,1.450214,1.474665,0.531838,0.657895,0.368646,0.208471,0.628645,NO
1.5.1,lang/java/avro/src/main/java/org/apache/avro/specific/SpecificExceptionBase.java,0.112039,0.000000,0.000000,1.063860,0.000000,0.000000,0.000000,0.000000,0.000000,0.000000,0.000000,1.536947,1.160631,1.049368,1.450214,1.530339,0.372287,0.328948,0.122882,0.312707,0.942967,NO
1.5.1,lang/java/avro/src/main/java/org/apache/avro/specific/SpecificRecordBase.java,0.168058,0.000000,0.000000,1.595789,0.000000,0.000000,0.000000,0.000000,0.000000,0.000000,0.000000,1.155015,1.160631,1.084325,1.346764,1.339886,0.372287,0.328948,0.122882,0.208471,0.628645,NO
1.5.1,lang/java/avro/src/main/java/org/apache/avro/AvroRemoteException.java,0.093366,0.000000,0.000000,0.000000,0.000000,0.000000,0.000000,0.000000,0.000000,0.000000,0.000000,1.502704,1.160631,1.410735,1.450214,1.596613,0.319103,0.328948,0.040961,0.052118,0.314322,YES
1.5.1,lang/java/avro/src/main/java/org/apache/avro/Schema.java,6.678768,0.098250,0.974352,6.383158,1.265598,0.068440,0.101414,0.087851,0.124829,0.106437,0.176646,2.029507,1.160631,0.282266,1.450214,1.338508,3.510131,2.960529,7.168113,11.518043,6.286447,NO
1.5.1,lang/java/avro/src/main/java/org/apache/avro/reflect/ReflectDatumWriter.java,0.473053,0.032750,0.974352,3.723509,1.265598,0.022813,0.016902,0.029284,0.000000,0.000000,0.000000,1.932049,1.160631,0.453451,1.450214,1.360486,0.425470,0.328948,0.245764,0.521178,0.942967,NO
1.5.1,lang/java/avro/src/main/java/org/apache/avro/reflect/ReflectDatumReader.java,0.628663,0.000000,0.000000,2.127719,0.000000,0.000000,0.000000,0.000000,0.000000,0.000000,0.000000,1.764789,1.160631,0.490898,1.450214,1.387562,0.443198,0.657895,0.450567,0.521178,0.942967,NO
1.5.1,lang/java/avro/src/main/java/org/apache/avro/reflect/ReflectData.java,2.471082,0.114625,1.461528,5.319298,1.265598,0.079847,0.050707,0.068328,0.020805,0.017740,0.019627,2.061115,1.160631,0.377555,1.450214,1.295573,1.223228,3.947372,3.481655,2.762246,3.771868,YES
1.5.1,lang/java/avro/src/main/java/org/apache/avro/io/ParsingEncoder.java,0.224078,0.000000,0.000000,0.000000,0.000000,0.000000,0.000000,0.000000,0.000000,0.000000,0.000000,1.115505,1.160631,1.675573,1.250977,1.376363,0.425470,0.328948,0.122882,0.052118,0.314322,NO
1.5.1,lang/java/avro/src/main/java/org/apache/avro/io/EncoderFactory.java,0.522849,0.000000,0.000000,0.000000,0.000000,0.000000,0.000000,0.000000,0.000000,0.000000,0.000000,0.121165,0.120342,0.303331,0.134102,0.149832,4.148337,0.328948,0.286725,0.260589,0.628645,NO
1.5.1,lang/java/avro/src/main/java/org/apache/avro/io/parsing/ResolvingGrammarGenerator.java,2.259453,0.000000,0.000000,2.659649,0.000000,0.000000,0.000000,0.000000,0.000000,0.000000,0.000000,1.336762,1.160631,0.501979,1.250977,1.156150,1.489147,1.644738,3.768379,1.772007,2.514579,NO
1.5.1,lang/java/avro/src/main/java/org/apache/avro/io/parsing/ValidatingGrammarGenerator.java,0.510400,0.000000,0.000000,0.531930,0.000000,0.000000,0.000000,0.000000,0.000000,0.000000,0.000000,1.230084,1.160631,0.923840,1.250977,1.336312,0.762301,1.315791,0.737292,0.312707,1.571612,NO
1.5.1,lang/java/avro/src/main/java/org/apache/avro/io/parsing/SkipParser.java,0.273873,0.000000,0.000000,0.531930,0.000000,0.000000,0.000000,0.000000,0.000000,0.000000,0.000000,1.182672,1.160631,0.986924,1.250977,1.332779,0.762301,0.986843,0.122882,0.104236,0.628645,NO
1.5.1,lang/java/avro/src/main/java/org/apache/avro/io/parsing/Symbol.java,2.228331,0.016375,0.974352,1.595789,1.265598,0.011407,0.016902,0.014642,0.020805,0.017740,0.029441,1.298568,1.160631,0.609546,1.250977,1.238666,2.180536,0.986843,0.655370,0.729650,1.257289,NO
1.5.1,lang/java/avro/src/main/java/org/apache/avro/io/parsing/JsonGrammarGenerator.java,0.361015,0.000000,0.000000,1.063860,0.000000,0.000000,0.000000,0.000000,0.000000,0.000000,0.000000,1.201110,1.160631,1.002310,1.250977,1.323879,0.620478,1.315791,0.655370,0.208471,0.314322,NO
1.5.1,lang/java/avro/src/main/java/org/apache/avro/io/parsing/Parser.java,0.609990,0.000000,0.000000,1.063860,0.000000,0.000000,0.000000,0.000000,0.000000,0.000000,0.000000,1.191891,1.160631,0.895155,1.250977,1.180340,1.400507,1.315791,0.532488,0.156354,0.314322,NO
1.5.1,lang/java/avro/src/main/java/org/apache/avro/io/JsonEncoder.java,1.288448,0.000000,0.000000,1.595789,0.000000,0.000000,0.000000,0.000000,0.000000,0.000000,0.000000,1.320958,1.160631,0.708635,1.250977,1.091626,0.992764,0.986843,0.655370,0.104236,0.314322,NO
1.5.1,lang/java/avro/src/main/java/org/apache/avro/io/BlockingBinaryEncoder.java,2.259453,0.000000,0.000000,1.063860,0.000000,0.000000,0.000000,0.000000,0.000000,0.000000,0.000000,1.299885,1.160631,0.887512,1.341016,1.132996,2.375543,1.315791,1.433623,0.833885,1.257289,NO
1.5.1,lang/java/avro/src/main/java/org/apache/avro/io/DirectBinaryEncoder.java,0.466829,0.000000,0.000000,0.000000,0.000000,0.000000,0.000000,0.000000,0.000000,0.000000,0.000000,0.059265,0.120342,0.445105,0.134102,0.150017,0.797757,0.657895,0.245764,0.052118,0.314322,NO
1.5.1,lang/java/avro/src/main/java/org/apache/avro/io/BinaryDecoder.java,4.027179,0.000000,0.000000,0.000000,0.000000,0.000000,0.000000,0.000000,0.000000,0.000000,0.000000,1.235352,1.160631,0.843451,1.306533,0.988149,4.378800,1.973686,2.580521,2.605892,2.828901,NO
1.5.1,lang/java/avro/src/main/java/org/apache/avro/io/BinaryData.java,2.153638,0.000000,0.000000,0.000000,0.000000,0.000000,0.000000,0.000000,0.000000,0.000000,0.000000,1.265643,1.160631,0.864133,1.174347,0.939273,1.205500,2.960529,3.276852,2.501656,2.200256,NO
1.5.1,lang/java/avro/src/main/java/org/apache/avro/io/BinaryEncoder.java,0.423258,0.000000,0.000000,0.531930,0.000000,0.000000,0.000000,0.000000,0.000000,0.000000,0.000000,1.619918,1.160631,0.935862,1.450214,1.234361,0.638206,0.328948,0.122882,0.208471,0.314322,NO
1.5.1,lang/java/avro/src/main/java/org/apache/avro/io/Encoder.java,0.248976,0.000000,0.000000,0.000000,0.000000,0.000000,0.000000,0.000000,0.000000,0.000000,0.000000,1.535630,1.160631,0.887166,1.450214,1.485553,3.900146,0.328948,0.040961,0.104236,0.314322,NO
1.5.1,lang/java/avro/src/main/java/org/apache/avro/io/BufferedBinaryEncoder.java,0.784273,0.000000,0.000000,0.000000,0.000000,0.000000,0.000000,0.000000,0.000000,0.000000,0.000000,0.109312,0.120342,0.410486,0.134102,0.150017,1.063676,0.986843,0.450567,0.208471,1.257289,NO
1.5.1,lang/java/avro/src/main/java/org/apache/avro/io/DecoderFactory.java,0.585092,0.000000,0.000000,0.000000,0.000000,0.000000,0.000000,0.000000,0.000000,0.000000,0.000000,0.578166,0.863787,0.868449,0.844840,0.510160,3.545587,0.328948,0.245764,0.208471,0.942967,NO
1.5.1,lang/java/avro/src/main/java/org/apache/avro/io/JsonDecoder.java,2.334146,0.000000,0.000000,1.063860,0.000000,0.000000,0.000000,0.000000,0.000000,0.000000,0.000000,1.299885,1.160631,0.697331,1.250977,1.163808,0.833213,1.644738,1.720347,0.156354,0.628645,NO
1.5.1,lang/java/avro/src/main/java/org/apache/avro/generic/GenericData.java,3.398516,0.311125,0.974352,4.787368,1.265598,0.216727,0.236632,0.278194,0.187243,0.159656,0.264970,1.991314,1.160631,0.364769,1.450214,1.248758,1.258683,3.947372,5.652569,4.273663,3.457546,YES
1.5.1,lang/java/avro/src/main/java/org/apache/avro/generic/GenericEnumSymbol.java,0.024898,0.000000,0.000000,0.000000,0.000000,0.000000,0.000000,0.000000,0.000000,0.000000,0.000000,1.463194,1.160631,1.221016,1.450214,1.503031,0.336831,0.000000,0.000000,0.052118,0.314322,NO
1.5.1,lang/java/avro/src/main/java/org/apache/avro/generic/GenericDatumReader.java,1.705482,0.032750,0.974352,3.191579,1.265598,0.022813,0.016902,0.029284,0.000000,0.000000,0.000000,2.059798,1.160631,0.343775,1.450214,1.373539,1.489147,1.315791,2.170914,0.521178,1.257289,NO
1.5.1,lang/java/avro/src/main/java/org/apache/avro/file/DataFileWriter.java,1.580995,0.000000,0.000000,2.659649,0.000000,0.000000,0.000000,0.000000,0.000000,0.000000,0.000000,1.701572,1.160631,0.491518,1.450214,1.279919,1.524602,0.657895,0.696331,0.260589,0.628645,YES
1.5.1,lang/java/avro/src/main/java/org/apache/avro/file/DataFileStream.java,1.624565,0.000000,0.000000,1.063860,0.000000,0.000000,0.000000,0.000000,0.000000,0.000000,0.000000,1.270911,1.160631,0.636335,0.940627,0.824473,1.258683,0.986843,1.105937,0.521178,0.942967,NO
1.5.1,lang/java/avro/src/main/java/org/apache/avro/file/NullCodec.java,0.217854,0.000000,0.000000,0.000000,0.000000,0.000000,0.000000,0.000000,0.000000,0.000000,0.000000,1.502704,1.160631,0.806134,1.450214,1.288382,0.336831,0.328948,0.040961,0.156354,0.942967,NO
1.5.1,lang/java/avro/src/main/java/org/apache/avro/file/DeflateCodec.java,0.603766,0.000000,0.000000,0.531930,0.000000,0.000000,0.000000,0.000000,0.000000,0.000000,0.000000,0.520218,0.863787,0.558147,0.898481,0.848985,0.549566,0.328948,0.245764,0.260589,0.942967,NO
1.5.1,lang/java/avro/src/main/java/org/apache/avro/file/CodecFactory.java,0.224078,0.098250,0.974352,0.000000,1.265598,0.068440,0.101414,0.087851,0.124829,0.106437,0.176646,0.550509,0.863787,0.826906,0.898481,0.868347,0.496382,0.328948,0.040961,0.104236,0.314322,NO
1.5.1,lang/java/avro/src/main/java/org/apache/avro/file/DataFileReader.java,1.051922,0.000000,0.000000,1.063860,0.000000,0.000000,0.000000,0.000000,0.000000,0.000000,0.000000,1.656794,1.160631,0.592531,1.450214,1.317256,0.886397,0.986843,0.573449,0.781768,2.514579,NO
1.5.1,lang/java/avro/src/main/java/org/apache/avro/file/DataFileConstants.java,0.093366,0.016375,0.974352,0.531930,1.265598,0.011407,0.016902,0.014642,0.020805,0.017740,0.029441,1.509290,1.160631,0.871949,1.450214,1.428065,0.372287,0.000000,0.000000,0.052118,0.314322,NO
1.5.1,lang/java/avro/src/main/java/org/apache/avro/file/DataFileReader12.java,1.045697,0.000000,0.000000,0.000000,0.000000,0.000000,0.000000,0.000000,0.000000,0.000000,0.000000,0.484658,0.863787,1.213323,0.283529,0.311340,0.709117,0.986843,0.778252,0.521178,1.571612,NO
1.5.1,lang/java/avro/src/main/java/org/apache/avro/util/Utf8.java,0.504175,0.000000,0.000000,0.531930,0.000000,0.000000,0.000000,0.000000,0.000000,0.000000,0.000000,1.580408,1.160631,0.913036,1.450214,1.307143,0.567294,0.657895,0.409606,0.469061,0.942967,NO
1.5.1,lang/java/avro/src/main/java/org/apache/avro/util/WeakIdentityHashMap.java,0.740702,0.000000,0.000000,0.000000,0.000000,0.000000,0.000000,0.000000,0.000000,0.000000,0.000000,0.431978,0.863787,1.622160,0.515333,0.576495,0.585022,0.328948,0.204803,1.094475,1.257289,NO
1.5.1,lang/java/avro/src/main/java/org/apache/avro/util/ByteBufferInputStream.java,0.323668,0.000000,0.000000,0.000000,0.000000,0.000000,0.000000,0.000000,0.000000,0.000000,0.000000,1.502704,1.160631,1.128588,1.450214,1.596961,0.531838,0.657895,0.286725,0.208471,0.314322,YES
1.5.1,lang/java/avro/src/main/java/org/apache/avro/util/ByteBufferOutputStream.java,0.435707,0.000000,0.000000,0.000000,0.000000,0.000000,0.000000,0.000000,0.000000,0.000000,0.000000,1.552751,1.160631,1.166175,1.450214,1.498363,0.443198,0.328948,0.245764,0.052118,0.314322,NO
1.5.1,lang/java/ipc/src/main/java/org/apache/avro/ipc/RPCContext.java,0.591317,0.000000,0.000000,1.595789,0.000000,0.000000,0.000000,0.000000,0.000000,0.000000,0.000000,1.120773,1.160631,0.841743,1.233735,0.992805,1.613242,0.328948,0.163843,0.156354,0.628645,NO
1.5.1,lang/java/ipc/src/main/java/org/apache/avro/ipc/NettyTransportCodec.java,0.690907,0.000000,0.000000,0.000000,0.000000,0.000000,0.000000,0.000000,0.000000,0.000000,0.000000,0.445148,0.863787,1.114411,0.591963,0.650415,0.815485,0.657895,0.286725,0.312707,0.942967,NO
1.5.1,lang/java/ipc/src/main/java/org/apache/avro/ipc/SaslSocketTransceiver.java,1.942009,0.311125,0.974352,0.531930,1.265598,0.216727,0.270436,0.278194,0.270463,0.230614,0.382734,0.613725,0.863787,0.921862,0.442535,0.451960,0.638206,1.315791,1.556504,2.501656,3.457546,NO
1.5.1,lang/java/ipc/src/main/java/org/apache/avro/ipc/specific/SpecificResponder.java,0.423258,0.000000,0.000000,2.127719,0.000000,0.000000,0.000000,0.000000,0.000000,0.000000,0.000000,1.726596,1.160631,0.682494,1.450214,1.222574,0.319103,0.328948,0.163843,0.104236,0.628645,YES
1.5.1,lang/java/ipc/src/main/java/org/apache/avro/ipc/specific/SpecificRequestor.java,0.497951,0.000000,0.000000,1.595789,0.000000,0.000000,0.000000,0.000000,0.000000,0.000000,0.000000,1.726596,1.160631,0.648369,1.450214,1.356525,0.390015,0.328948,0.081921,0.156354,0.628645,YES
1.5.1,lang/java/ipc/src/main/java/org/apache/avro/ipc/SocketTransceiver.java,0.497951,0.000000,0.000000,0.531930,0.000000,0.000000,0.000000,0.000000,0.000000,0.000000,0.000000,1.490851,1.160631,0.799776,1.450214,1.494631,0.443198,0.986843,0.409606,0.312707,0.628645,NO
1.5.1,lang/java/ipc/src/main/java/org/apache/avro/ipc/Transceiver.java,0.143161,0.000000,0.000000,0.000000,0.000000,0.000000,0.000000,0.000000,0.000000,0.000000,0.000000,1.440805,1.160631,1.202333,1.450214,1.444145,0.638206,0.000000,0.000000,0.156354,0.628645,YES
1.5.1,lang/java/ipc/src/main/java/org/apache/avro/ipc/reflect/ReflectResponder.java,0.211629,0.000000,0.000000,1.595789,0.000000,0.000000,0.000000,0.000000,0.000000,0.000000,0.000000,1.820103,1.160631,0.650936,1.450214,1.462293,0.336831,0.328948,0.040961,0.052118,0.314322,NO
1.5.1,lang/java/ipc/src/main/java/org/apache/avro/ipc/RPCPlugin.java,0.062244,0.000000,0.000000,0.000000,0.000000,0.000000,0.000000,0.000000,0.000000,0.000000,0.000000,1.044386,1.160631,1.568747,1.233735,1.293457,0.975036,0.000000,0.000000,0.364825,0.314322,NO
1.5.1,lang/java/ipc/src/main/java/org/apache/avro/ipc/NettyServer.java,0.697131,0.000000,0.000000,0.531930,0.000000,0.000000,0.000000,0.000000,0.000000,0.000000,0.000000,0.483341,0.863787,0.726016,0.591963,0.636461,0.425470,0.328948,0.122882,0.104236,0.314322,YES
1.5.1,lang/java/ipc/src/main/java/org/apache/avro/ipc/stats/Histogram.java,1.027024,0.000000,0.000000,0.000000,0.000000,0.000000,0.000000,0.000000,0.000000,0.000000,0.000000,1.018046,1.160631,1.911478,0.925301,0.942092,1.240956,0.657895,0.450567,0.573296,1.885934,NO
1.5.1,lang/java/ipc/src/main/java/org/apache/avro/ipc/stats/Stopwatch.java,0.236527,0.000000,0.000000,0.000000,0.000000,0.000000,0.000000,0.000000,0.000000,0.000000,0.000000,1.012778,1.160631,2.535449,0.925301,1.035120,0.496382,0.657895,0.163843,0.208471,0.628645,NO
1.5.1,lang/java/ipc/src/main/java/org/apache/avro/ipc/stats/StatsServer.java,0.124488,0.000000,0.000000,0.000000,0.000000,0.000000,0.000000,0.000000,0.000000,0.000000,0.000000,0.449099,0.863787,1.686453,0.540238,0.604356,0.496382,0.000000,0.000000,0.052118,0.314322,NO
1.5.1,lang/java/ipc/src/main/java/org/apache/avro/ipc/stats/StatsPlugin.java,1.002126,0.000000,0.000000,0.000000,0.000000,0.000000,0.000000,0.000000,0.000000,0.000000,0.000000,1.054922,1.160631,1.320478,0.925301,0.714578,0.726845,0.328948,0.327685,0.052118,0.314322,NO
1.5.1,lang/java/ipc/src/main/java/org/apache/avro/ipc/stats/StatsServlet.java,1.207531,0.000000,0.000000,0.000000,0.000000,0.000000,0.000000,0.000000,0.000000,0.000000,0.000000,1.054922,1.160631,1.320478,0.925301,0.665923,0.744573,0.328948,0.286725,1.094475,1.571612,NO
1.5.1,lang/java/ipc/src/main/java/org/apache/avro/ipc/DatagramServer.java,0.280097,0.000000,0.000000,0.000000,0.000000,0.000000,0.000000,0.000000,0.000000,0.000000,0.000000,1.498753,1.160631,1.023292,1.450214,1.548934,0.336831,0.657895,0.122882,0.052118,0.314322,NO
1.5.1,lang/java/ipc/src/main/java/org/apache/avro/ipc/DatagramTransceiver.java,0.336117,0.000000,0.000000,0.000000,0.000000,0.000000,0.000000,0.000000,0.000000,0.000000,0.000000,1.025948,1.160631,1.926315,1.130285,1.254529,0.390015,0.657895,0.122882,0.104236,0.314322,NO
1.5.1,lang/java/ipc/src/main/java/org/apache/avro/ipc/NettyTransceiver.java,1.213756,0.000000,0.000000,0.000000,0.000000,0.000000,0.000000,0.000000,0.000000,0.000000,0.000000,0.451733,0.863787,0.848172,0.591963,0.644355,0.638206,0.328948,0.286725,0.312707,1.257289,YES
1.5.1,lang/java/ipc/src/main/java/org/apache/avro/ipc/Responder.java,1.139063,0.000000,0.000000,3.191579,0.000000,0.000000,0.000000,0.000000,0.000000,0.000000,0.000000,1.978144,1.160631,0.450200,1.450214,1.329751,0.762301,0.657895,0.819213,0.573296,0.942967,NO
1.5.1,lang/java/ipc/src/main/java/org/apache/avro/ipc/generic/GenericResponder.java,0.248976,0.000000,0.000000,1.063860,0.000000,0.000000,0.000000,0.000000,0.000000,0.000000,0.000000,1.573823,1.160631,0.985001,1.450214,1.421770,0.319103,0.328948,0.040961,0.052118,0.314322,NO
1.5.1,lang/java/ipc/src/main/java/org/apache/avro/ipc/generic/GenericRequestor.java,0.298771,0.000000,0.000000,1.063860,0.000000,0.000000,0.000000,0.000000,0.000000,0.000000,0.000000,1.679183,1.160631,0.840754,1.450214,1.466442,0.336831,0.657895,0.163843,0.260589,0.628645,YES
1.5.1,lang/java/ipc/src/main/java/org/apache/avro/ipc/HttpTransceiver.java,0.491727,0.000000,0.000000,0.000000,0.000000,0.000000,0.000000,0.000000,0.000000,0.000000,0.000000,1.093115,1.160631,0.912190,1.116875,1.139047,0.390015,0.986843,0.245764,0.052118,0.314322,NO
1.5.1,lang/java/ipc/src/main/java/org/apache/avro/ipc/SocketServer.java,0.622439,0.000000,0.000000,0.531930,0.000000,0.000000,0.000000,0.000000,0.000000,0.000000,0.000000,1.651526,1.160631,0.729623,1.450214,1.426215,0.407743,0.657895,0.327685,0.469061,1.885934,YES
1.5.1,lang/java/ipc/src/main/java/org/apache/avro/ipc/trace/InMemorySpanStorage.java,0.280097,0.000000,0.000000,0.000000,0.000000,0.000000,0.000000,0.000000,0.000000,0.000000,0.000000,0.462269,0.863787,1.157273,0.524912,0.584639,0.425470,0.657895,0.163843,0.052118,0.314322,NO
1.5.1,lang/java/ipc/src/main/java/org/apache/avro/ipc/trace/FileSpanStorage.java,1.319570,0.000000,0.000000,0.000000,0.000000,0.000000,0.000000,0.000000,0.000000,0.000000,0.000000,0.439880,0.863787,1.651834,0.509586,0.570066,1.861433,0.986843,0.942095,0.938121,2.200256,NO
1.5.1,lang/java/ipc/src/main/java/org/apache/avro/ipc/trace/Trace.java,0.784273,0.000000,0.000000,0.000000,0.000000,0.000000,0.000000,0.000000,0.000000,0.000000,0.000000,0.517584,0.863787,0.971812,0.524912,0.586432,1.772794,1.644738,0.819213,0.469061,0.942967,NO
1.5.1,lang/java/ipc/src/main/java/org/apache/avro/ipc/trace/TraceCollection.java,1.232429,0.000000,0.000000,0.000000,0.000000,0.000000,0.000000,0.000000,0.000000,0.000000,0.000000,0.470171,0.863787,1.177055,0.490429,0.546829,1.365051,0.986843,0.573449,0.416943,1.571612,NO
1.5.1,lang/java/ipc/src/main/java/org/apache/avro/ipc/trace/TraceClientServlet.java,1.188858,0.000000,0.000000,0.000000,0.000000,0.000000,0.000000,0.000000,0.000000,0.000000,0.000000,0.576849,0.863787,1.083089,0.524912,0.549390,0.726845,0.986843,0.819213,0.573296,1.885934,NO
1.5.1,lang/java/ipc/src/main/java/org/apache/avro/ipc/trace/TracePlugin.java,1.668136,0.000000,0.000000,0.000000,0.000000,0.000000,0.000000,0.000000,0.000000,0.000000,0.000000,0.651918,0.863787,0.612019,0.524912,0.572432,1.365051,0.986843,1.105937,0.573296,2.200256,NO
1.5.1,lang/java/ipc/src/main/java/org/apache/avro/ipc/trace/TracePluginConfiguration.java,0.273873,0.000000,0.000000,0.000000,0.000000,0.000000,0.000000,0.000000,0.000000,0.000000,0.000000,0.505731,0.863787,0.759646,0.524912,0.570701,0.638206,0.328948,0.040961,0.156354,0.942967,NO
1.5.1,lang/java/ipc/src/main/java/org/apache/avro/ipc/trace/Util.java,0.865190,0.000000,0.000000,0.000000,0.000000,0.000000,0.000000,0.000000,0.000000,0.000000,0.000000,0.507048,0.863787,0.761624,0.524912,0.575844,1.081404,1.315791,0.983055,0.521178,1.885934,NO
1.5.1,lang/java/ipc/src/main/java/org/apache/avro/ipc/trace/SpanAggregator.java,0.666010,0.000000,0.000000,0.531930,0.000000,0.000000,0.000000,0.000000,0.000000,0.000000,0.000000,0.489926,0.863787,0.919883,0.524912,0.576404,0.975036,1.973686,0.614410,0.312707,0.942967,NO
1.5.1,lang/java/ipc/src/main/java/org/apache/avro/ipc/SaslSocketServer.java,0.423258,0.000000,0.000000,0.000000,0.000000,0.000000,0.000000,0.000000,0.000000,0.000000,0.000000,0.435929,0.863787,1.636997,0.442535,0.495057,0.390015,0.328948,0.040961,0.781768,1.885934,NO
1.5.1,lang/java/ipc/src/main/java/org/apache/avro/ipc/Ipc.java,0.161834,0.000000,0.000000,0.000000,0.000000,0.000000,0.000000,0.000000,0.000000,0.000000,0.000000,0.433295,0.863787,1.627106,0.283529,0.317180,0.390015,0.657895,0.163843,0.364825,0.628645,NO
1.5.1,lang/java/ipc/src/main/java/org/apache/avro/ipc/Requestor.java,1.300897,0.000000,0.000000,2.127719,0.000000,0.000000,0.000000,0.000000,0.000000,0.000000,0.000000,1.986046,1.160631,0.481160,1.450214,1.311718,0.815485,0.657895,0.942095,0.573296,0.314322,YES
1.5.1,lang/java/tools/src/main/java/org/apache/avro/tool/TetherTool.java,0.410810,0.000000,0.000000,0.531930,0.000000,0.000000,0.000000,0.000000,0.000000,0.000000,0.000000,0.023706,0.032091,0.089021,0.214563,0.233125,0.301375,0.328948,0.122882,0.104236,0.314322,NO
1.5.1,lang/java/tools/src/main/java/org/apache/avro/tool/DataFileWriteTool.java,0.666010,0.000000,0.000000,0.000000,0.000000,0.000000,0.000000,0.000000,0.000000,0.000000,0.000000,1.106286,1.160631,1.186946,0.942543,0.847934,0.319103,0.657895,0.327685,0.156354,0.942967,NO
1.5.1,lang/java/tools/src/main/java/org/apache/avro/tool/JsonToBinaryFragmentTool.java,0.348566,0.000000,0.000000,0.531930,0.000000,0.000000,0.000000,0.000000,0.000000,0.000000,0.000000,1.127358,1.160631,1.411147,0.942543,0.919957,0.319103,0.328948,0.122882,0.104236,0.628645,NO
1.5.1,lang/java/tools/src/main/java/org/apache/avro/tool/RpcReceiveTool.java,0.865190,0.000000,0.000000,0.000000,0.000000,0.000000,0.000000,0.000000,0.000000,0.000000,0.000000,1.220865,1.160631,1.146145,0.940627,0.967392,0.407743,0.657895,0.368646,0.104236,0.628645,NO
1.5.1,lang/java/tools/src/main/java/org/apache/avro/tool/BinaryFragmentToJsonTool.java,0.385912,0.000000,0.000000,0.000000,0.000000,0.000000,0.000000,0.000000,0.000000,0.000000,0.000000,1.155015,1.160631,1.445767,0.942543,0.991536,0.319103,0.328948,0.122882,0.104236,0.628645,YES
1.5.1,lang/java/tools/src/main/java/org/apache/avro/tool/Main.java,0.392136,0.000000,0.000000,0.531930,0.000000,0.000000,0.000000,0.000000,0.000000,0.000000,0.000000,1.295934,1.160631,0.572527,1.065150,1.054166,0.425470,0.657895,0.245764,0.052118,0.314322,NO
1.5.1,lang/java/tools/src/main/java/org/apache/avro/tool/FromTextTool.java,0.385912,0.966126,0.974352,0.000000,1.265598,0.672994,0.760602,0.863866,0.644949,0.549925,0.912673,1.156332,1.160631,1.085561,0.942543,0.564238,0.390015,0.328948,0.122882,0.052118,0.314322,NO
1.5.1,lang/java/tools/src/main/java/org/apache/avro/tool/RecodecTool.java,0.535297,0.000000,0.000000,0.000000,0.000000,0.000000,0.000000,0.000000,0.000000,0.000000,0.000000,0.431978,0.863787,1.622160,0.316097,0.353612,0.319103,0.657895,0.327685,0.312707,0.942967,NO
1.5.1,lang/java/tools/src/main/java/org/apache/avro/tool/InduceSchemaTool.java,0.304995,0.000000,0.000000,0.000000,0.000000,0.000000,0.000000,0.000000,0.000000,0.000000,0.000000,1.128675,1.160631,1.059597,1.019173,1.091606,0.354559,0.986843,0.204803,0.052118,0.314322,NO
1.5.1,lang/java/tools/src/main/java/org/apache/avro/tool/Util.java,0.485502,0.000000,0.000000,0.000000,0.000000,0.000000,0.000000,0.000000,0.000000,0.000000,0.000000,1.518509,1.160631,0.877275,1.450214,1.141242,0.620478,0.986843,0.245764,0.312707,0.942967,NO
1.5.1,lang/java/tools/src/main/java/org/apache/avro/tool/IdlTool.java,0.292546,0.000000,0.000000,0.000000,0.000000,0.000000,0.000000,0.000000,0.000000,0.000000,0.000000,1.172136,1.160631,1.257598,0.940627,0.937939,0.372287,0.328948,0.122882,0.208471,0.942967,NO
1.5.1,lang/java/compiler/src/main/java/org/apache/avro/compiler/specific/SpecificCompiler.java,2.103843,0.000000,0.000000,3.191579,0.000000,0.000000,0.000000,0.000000,0.000000,0.000000,0.000000,1.975510,1.160631,0.345043,1.450214,1.181286,0.992764,1.315791,2.908206,0.416943,0.628645,NO
1.5.1,lang/java/compiler/src/main/java/org/apache/avro/compiler/specific/ProtocolTask.java,0.292546,0.000000,0.000000,0.000000,0.000000,0.000000,0.000000,0.000000,0.000000,0.000000,0.000000,1.509290,1.160631,1.259482,1.450214,1.569179,0.390015,0.657895,0.245764,0.364825,1.571612,NO
1.5.2,lang/java/mapred/src/main/java/org/apache/avro/mapred/AvroReducer.java,0.168058,0.000000,0.000000,0.000000,0.000000,0.000000,0.000000,0.000000,0.000000,0.000000,0.000000,0.517584,0.863787,0.971812,0.954037,0.857947,0.514110,0.328948,0.081921,0.104236,0.628645,NO
1.5.2,lang/java/mapred/src/main/java/org/apache/avro/mapred/SequenceFileReader.java,1.201307,0.000000,0.000000,0.000000,0.000000,0.000000,0.000000,0.000000,0.000000,0.000000,0.000000,0.438563,0.863787,1.646888,0.630278,0.705082,0.390015,0.328948,0.368646,1.146592,1.885934,NO
1.5.2,lang/java/mapred/src/main/java/org/apache/avro/mapred/AvroOutputFormat.java,0.485502,0.311125,0.487176,0.531930,1.265598,0.250947,0.371850,0.644239,0.062414,0.106437,0.176646,0.595287,0.863787,0.496759,0.954037,0.754282,0.443198,0.657895,0.245764,0.104236,0.314322,NO
1.5.2,lang/java/mapred/src/main/java/org/apache/avro/mapred/AvroRecordReader.java,0.336117,0.000000,0.000000,0.531930,0.000000,0.000000,0.000000,0.000000,0.000000,0.000000,0.000000,0.534705,0.863787,0.669306,0.954037,0.950569,0.336831,0.328948,0.122882,0.052118,0.314322,NO
1.5.2,lang/java/mapred/src/main/java/org/apache/avro/mapred/AvroSerialization.java,0.566419,0.000000,0.000000,0.531930,0.000000,0.000000,0.000000,0.000000,0.000000,0.000000,0.000000,0.670356,0.863787,0.719233,0.954037,0.942622,0.514110,0.657895,0.286725,0.052118,0.314322,NO
1.5.2,lang/java/mapred/src/main/java/org/apache/avro/mapred/HadoopMapper.java,0.354790,0.000000,0.000000,0.000000,0.000000,0.000000,0.000000,0.000000,0.000000,0.000000,0.000000,0.493877,0.863787,1.236402,0.741391,0.766471,0.372287,0.328948,0.081921,0.260589,0.628645,NO
1.5.2,lang/java/mapred/src/main/java/org/apache/avro/mapred/FsInput.java,0.186732,0.000000,0.000000,0.000000,0.000000,0.000000,0.000000,0.000000,0.000000,0.000000,0.000000,0.449099,0.863787,1.686453,0.954037,1.067266,0.336831,0.000000,0.000000,0.052118,0.314322,NO
1.5.2,lang/java/mapred/src/main/java/org/apache/avro/mapred/AvroKeyComparator.java,0.143161,0.000000,0.000000,0.531930,0.000000,0.000000,0.000000,0.000000,0.000000,0.000000,0.000000,0.567630,0.863787,0.710519,0.954037,0.970997,0.319103,0.328948,0.040961,0.052118,0.314322,NO
1.5.2,lang/java/mapred/src/main/java/org/apache/avro/mapred/AvroMapper.java,0.124488,0.000000,0.000000,0.000000,0.000000,0.000000,0.000000,0.000000,0.000000,0.000000,0.000000,0.517584,0.863787,0.971812,0.954037,0.859909,0.478654,0.000000,0.000000,0.104236,0.314322,NO
1.5.2,lang/java/mapred/src/main/java/org/apache/avro/mapred/AvroWrapper.java,0.161834,0.000000,0.000000,1.063860,0.000000,0.000000,0.000000,0.000000,0.000000,0.000000,0.000000,1.152381,1.160631,0.865482,1.386994,1.284905,0.390015,0.657895,0.286725,0.364825,0.628645,NO
1.5.2,lang/java/mapred/src/main/java/org/apache/avro/mapred/HadoopReducerBase.java,0.255200,0.000000,0.000000,0.000000,0.000000,0.000000,0.000000,0.000000,0.000000,0.000000,0.000000,0.493877,0.863787,1.236402,0.741391,0.786362,0.301375,0.328948,0.040961,0.416943,0.942967,NO
1.5.2,lang/java/mapred/src/main/java/org/apache/avro/mapred/AvroInputFormat.java,0.186732,0.000000,0.000000,0.000000,0.000000,0.000000,0.000000,0.000000,0.000000,0.000000,0.000000,0.449099,0.863787,1.686453,0.954037,1.067266,0.319103,0.657895,0.081921,0.104236,0.314322,NO
1.5.2,lang/java/mapred/src/main/java/org/apache/avro/mapred/tether/TetherKeySerialization.java,0.336117,0.000000,0.000000,0.000000,0.000000,0.000000,0.000000,0.000000,0.000000,0.000000,0.000000,0.583434,0.863787,1.095453,0.810357,0.857349,0.319103,0.328948,0.040961,0.156354,0.628645,NO
1.5.2,lang/java/mapred/src/main/java/org/apache/avro/mapred/tether/TetheredProcess.java,0.553971,0.000000,0.000000,0.000000,0.000000,0.000000,0.000000,0.000000,0.000000,0.000000,0.000000,0.620310,0.863787,0.931753,0.810357,0.887774,0.460926,0.657895,0.286725,0.312707,0.942967,NO
1.5.2,lang/java/mapred/src/main/java/org/apache/avro/mapred/tether/TetherMapRunner.java,0.342341,0.000000,0.000000,0.000000,0.000000,0.000000,0.000000,0.000000,0.000000,0.000000,0.000000,0.474122,0.863787,1.780420,0.810357,0.906534,0.407743,0.657895,0.204803,0.208471,0.628645,NO
1.5.2,lang/java/mapred/src/main/java/org/apache/avro/mapred/tether/TetherOutputService.java,0.410810,0.000000,0.000000,0.000000,0.000000,0.000000,0.000000,0.000000,0.000000,0.000000,0.000000,0.510999,0.863787,1.279264,0.810357,0.897884,0.301375,0.328948,0.122882,0.364825,1.257289,NO
1.5.2,lang/java/mapred/src/main/java/org/apache/avro/mapred/tether/TetherRecordReader.java,0.311219,0.000000,0.000000,0.000000,0.000000,0.000000,0.000000,0.000000,0.000000,0.000000,0.000000,0.497828,0.863787,1.246294,0.954037,1.018010,0.319103,0.328948,0.081921,0.052118,0.314322,NO
1.5.2,lang/java/mapred/src/main/java/org/apache/avro/mapred/tether/TetherReducer.java,0.329893,0.000000,0.000000,0.000000,0.000000,0.000000,0.000000,0.000000,0.000000,0.000000,0.000000,0.474122,0.863787,1.780420,0.810357,0.906534,0.354559,0.328948,0.245764,0.156354,0.314322,NO
1.5.2,lang/java/mapred/src/main/java/org/apache/avro/mapred/tether/TetherInputFormat.java,0.192956,0.000000,0.000000,0.000000,0.000000,0.000000,0.000000,0.000000,0.000000,0.000000,0.000000,0.497828,0.863787,1.246294,0.954037,1.035120,0.319103,0.657895,0.081921,0.104236,0.314322,NO
1.5.2,lang/java/mapred/src/main/java/org/apache/avro/mapred/tether/TetherData.java,0.074693,0.000000,0.000000,0.000000,0.000000,0.000000,0.000000,0.000000,0.000000,0.000000,0.000000,1.463194,1.160631,1.098914,1.637956,1.525207,0.407743,0.000000,0.000000,0.052118,0.314322,NO
1.5.2,lang/java/mapred/src/main/java/org/apache/avro/mapred/tether/TetherKeyComparator.java,0.205405,0.000000,0.000000,0.000000,0.000000,0.000000,0.000000,0.000000,0.000000,0.000000,0.000000,0.504414,0.863787,0.947084,0.954037,0.981251,0.319103,0.328948,0.122882,0.104236,0.628645,NO
1.5.2,lang/java/mapred/src/main/java/org/apache/avro/mapred/tether/TetherPartitioner.java,0.186732,0.000000,0.000000,0.000000,0.000000,0.000000,0.000000,0.000000,0.000000,0.000000,0.000000,0.475439,0.863787,1.190243,0.810357,0.906534,0.319103,0.328948,0.081921,0.104236,0.314322,NO
1.5.2,lang/java/mapred/src/main/java/org/apache/avro/mapred/HadoopReducer.java,0.192956,0.000000,0.000000,0.000000,0.000000,0.000000,0.000000,0.000000,0.000000,0.000000,0.000000,0.474122,0.863787,1.780420,0.741391,0.829382,0.336831,0.000000,0.000000,0.052118,0.314322,NO
1.5.2,lang/java/mapred/src/main/java/org/apache/avro/mapred/Pair.java,2.744955,0.000000,0.000000,0.531930,0.000000,0.000000,0.000000,0.000000,0.000000,0.000000,0.000000,0.525486,0.863787,0.986649,0.741391,0.783397,0.992764,0.657895,0.409606,0.260589,0.628645,NO
1.5.2,lang/java/mapred/src/main/java/org/apache/avro/mapred/AvroJob.java,0.715805,0.000000,0.000000,0.531930,0.000000,0.000000,0.000000,0.000000,0.000000,0.000000,0.000000,0.603189,0.863787,0.503353,0.954037,0.851548,0.850941,0.328948,0.245764,0.260589,0.628645,NO
1.5.2,lang/java/avro/src/main/java/org/apache/avro/Protocol.java,1.991804,0.000000,0.000000,1.063860,0.000000,0.000000,0.000000,0.000000,0.000000,0.000000,0.000000,1.708158,1.160631,0.534538,1.637956,1.704312,1.258683,0.986843,1.720347,1.824124,1.257289,YES
1.5.2,lang/java/avro/src/main/java/org/apache/avro/specific/SpecificDatumWriter.java,0.186732,0.000000,0.000000,1.063860,0.000000,0.000000,0.000000,0.000000,0.000000,0.000000,0.000000,1.586993,1.160631,0.794595,1.637956,1.673734,0.336831,0.328948,0.040961,0.104236,0.314322,NO
1.5.2,lang/java/avro/src/main/java/org/apache/avro/specific/SpecificData.java,0.995902,0.016375,0.487176,3.723509,1.265598,0.011407,0.016902,0.029284,0.000000,0.000000,0.000000,1.347298,1.160631,0.439944,1.358258,1.276689,0.496382,3.947372,1.843229,1.250828,2.514579,NO
1.5.2,lang/java/avro/src/main/java/org/apache/avro/specific/SpecificDatumReader.java,0.404585,0.000000,0.000000,1.595789,0.000000,0.000000,0.000000,0.000000,0.000000,0.000000,0.000000,1.689719,1.160631,0.576838,1.637956,1.684690,0.531838,0.657895,0.368646,0.208471,0.628645,NO
1.5.2,lang/java/avro/src/main/java/org/apache/avro/specific/SpecificExceptionBase.java,0.112039,0.000000,0.000000,1.063860,0.000000,0.000000,0.000000,0.000000,0.000000,0.000000,0.000000,1.536947,1.160631,1.049368,1.637956,1.740364,0.372287,0.328948,0.122882,0.312707,0.942967,NO
1.5.2,lang/java/avro/src/main/java/org/apache/avro/specific/SpecificRecordBase.java,0.168058,0.000000,0.000000,1.595789,0.000000,0.000000,0.000000,0.000000,0.000000,0.000000,0.000000,1.155015,1.160631,1.084325,1.534506,1.549910,0.372287,0.328948,0.122882,0.208471,0.628645,NO
1.5.2,lang/java/avro/src/main/java/org/apache/avro/AvroRemoteException.java,0.093366,0.000000,0.000000,0.000000,0.000000,0.000000,0.000000,0.000000,0.000000,0.000000,0.000000,1.502704,1.160631,1.410735,1.637956,1.806638,0.319103,0.328948,0.040961,0.052118,0.314322,YES
1.5.2,lang/java/avro/src/main/java/org/apache/avro/Schema.java,6.815705,0.171938,0.487176,6.383158,1.265598,0.239540,0.354948,0.614956,0.218450,0.372530,0.618263,1.957072,1.160631,0.272192,1.637956,1.541933,3.581043,2.960529,7.331955,11.518043,6.286447,NO
1.5.2,lang/java/avro/src/main/java/org/apache/avro/reflect/ReflectDatumWriter.java,0.473053,0.000000,0.000000,3.723509,0.000000,0.000000,0.000000,0.000000,0.000000,0.000000,0.000000,1.854345,1.160631,0.449253,1.637956,1.576362,0.425470,0.657895,0.286725,0.521178,0.942967,NO
1.5.2,lang/java/avro/src/main/java/org/apache/avro/reflect/ReflectDatumReader.java,0.628663,0.000000,0.000000,2.127719,0.000000,0.000000,0.000000,0.000000,0.000000,0.000000,0.000000,1.764789,1.160631,0.490898,1.637956,1.597586,0.443198,0.657895,0.450567,0.521178,0.942967,NO
1.5.2,lang/java/avro/src/main/java/org/apache/avro/reflect/ReflectData.java,2.502204,0.032750,0.487176,5.851228,1.265598,0.045627,0.067609,0.117134,0.041610,0.070958,0.117764,1.991314,1.160631,0.364769,1.637956,1.507372,1.223228,3.947372,3.604537,2.762246,3.771868,YES
1.5.2,lang/java/avro/src/main/java/org/apache/avro/io/ParsingEncoder.java,0.224078,0.000000,0.000000,0.000000,0.000000,0.000000,0.000000,0.000000,0.000000,0.000000,0.000000,1.115505,1.160631,1.675573,1.438719,1.586388,0.425470,0.328948,0.122882,0.052118,0.314322,NO
1.5.2,lang/java/avro/src/main/java/org/apache/avro/io/EncoderFactory.java,0.522849,0.000000,0.000000,0.000000,0.000000,0.000000,0.000000,0.000000,0.000000,0.000000,0.000000,0.121165,0.120342,0.303331,0.321844,0.359856,4.148337,0.328948,0.286725,0.260589,0.628645,NO
1.5.2,lang/java/avro/src/main/java/org/apache/avro/io/parsing/ResolvingGrammarGenerator.java,2.259453,0.000000,0.000000,2.659649,0.000000,0.000000,0.000000,0.000000,0.000000,0.000000,0.000000,1.336762,1.160631,0.501979,1.438719,1.366175,1.489147,1.644738,3.768379,1.772007,2.514579,NO
1.5.2,lang/java/avro/src/main/java/org/apache/avro/io/parsing/ValidatingGrammarGenerator.java,0.510400,0.000000,0.000000,0.531930,0.000000,0.000000,0.000000,0.000000,0.000000,0.000000,0.000000,1.230084,1.160631,0.923840,1.438719,1.546336,0.762301,1.315791,0.737292,0.312707,1.571612,NO
1.5.2,lang/java/avro/src/main/java/org/apache/avro/io/parsing/SkipParser.java,0.273873,0.000000,0.000000,0.531930,0.000000,0.000000,0.000000,0.000000,0.000000,0.000000,0.000000,1.182672,1.160631,0.986924,1.438719,1.542804,0.762301,0.986843,0.122882,0.104236,0.628645,NO
1.5.2,lang/java/avro/src/main/java/org/apache/avro/io/parsing/Symbol.java,2.234555,0.000000,0.000000,1.595789,0.000000,0.000000,0.000000,0.000000,0.000000,0.000000,0.000000,1.220865,1.160631,0.611277,1.438719,1.450593,2.180536,0.986843,0.655370,0.729650,1.257289,NO
1.5.2,lang/java/avro/src/main/java/org/apache/avro/io/parsing/JsonGrammarGenerator.java,0.361015,0.000000,0.000000,1.063860,0.000000,0.000000,0.000000,0.000000,0.000000,0.000000,0.000000,1.201110,1.160631,1.002310,1.438719,1.533903,0.620478,1.315791,0.655370,0.208471,0.314322,NO
1.5.2,lang/java/avro/src/main/java/org/apache/avro/io/parsing/Parser.java,0.609990,0.000000,0.000000,1.063860,0.000000,0.000000,0.000000,0.000000,0.000000,0.000000,0.000000,1.191891,1.160631,0.895155,1.438719,1.390365,1.400507,1.315791,0.532488,0.156354,0.314322,NO
1.5.2,lang/java/avro/src/main/java/org/apache/avro/io/JsonEncoder.java,1.288448,0.000000,0.000000,1.595789,0.000000,0.000000,0.000000,0.000000,0.000000,0.000000,0.000000,1.320958,1.160631,0.708635,1.438719,1.301650,0.992764,0.986843,0.655370,0.104236,0.314322,NO
1.5.2,lang/java/avro/src/main/java/org/apache/avro/io/BlockingBinaryEncoder.java,2.259453,0.000000,0.000000,1.063860,0.000000,0.000000,0.000000,0.000000,0.000000,0.000000,0.000000,1.299885,1.160631,0.887512,1.528759,1.343020,2.375543,1.315791,1.433623,0.833885,1.257289,NO
1.5.2,lang/java/avro/src/main/java/org/apache/avro/io/DirectBinaryEncoder.java,0.466829,0.000000,0.000000,0.000000,0.000000,0.000000,0.000000,0.000000,0.000000,0.000000,0.000000,0.059265,0.120342,0.445105,0.321844,0.360042,0.797757,0.657895,0.245764,0.052118,0.314322,NO
1.5.2,lang/java/avro/src/main/java/org/apache/avro/io/BinaryDecoder.java,4.027179,0.000000,0.000000,0.000000,0.000000,0.000000,0.000000,0.000000,0.000000,0.000000,0.000000,1.235352,1.160631,0.843451,1.494276,1.198173,4.378800,1.973686,2.580521,2.605892,2.828901,NO
1.5.2,lang/java/avro/src/main/java/org/apache/avro/io/BinaryData.java,2.153638,0.000000,0.000000,0.000000,0.000000,0.000000,0.000000,0.000000,0.000000,0.000000,0.000000,1.265643,1.160631,0.864133,1.362090,1.149297,1.205500,2.960529,3.276852,2.501656,2.200256,NO
1.5.2,lang/java/avro/src/main/java/org/apache/avro/io/BinaryEncoder.java,0.423258,0.000000,0.000000,0.531930,0.000000,0.000000,0.000000,0.000000,0.000000,0.000000,0.000000,1.619918,1.160631,0.935862,1.637956,1.444385,0.638206,0.328948,0.122882,0.208471,0.314322,NO
1.5.2,lang/java/avro/src/main/java/org/apache/avro/io/Encoder.java,0.248976,0.000000,0.000000,0.000000,0.000000,0.000000,0.000000,0.000000,0.000000,0.000000,0.000000,1.535630,1.160631,0.887166,1.637956,1.695578,3.900146,0.328948,0.040961,0.104236,0.314322,NO
1.5.2,lang/java/avro/src/main/java/org/apache/avro/io/BufferedBinaryEncoder.java,0.784273,0.000000,0.000000,0.000000,0.000000,0.000000,0.000000,0.000000,0.000000,0.000000,0.000000,0.109312,0.120342,0.410486,0.321844,0.360042,1.063676,0.986843,0.450567,0.208471,1.257289,NO
1.5.2,lang/java/avro/src/main/java/org/apache/avro/io/DecoderFactory.java,0.585092,0.000000,0.000000,0.000000,0.000000,0.000000,0.000000,0.000000,0.000000,0.000000,0.000000,0.578166,0.863787,0.868449,1.032583,0.720184,3.545587,0.328948,0.245764,0.208471,0.942967,NO
1.5.2,lang/java/avro/src/main/java/org/apache/avro/io/JsonDecoder.java,2.334146,0.000000,0.000000,1.063860,0.000000,0.000000,0.000000,0.000000,0.000000,0.000000,0.000000,1.299885,1.160631,0.697331,1.438719,1.373833,0.833213,1.644738,1.720347,0.156354,0.628645,NO
1.5.2,lang/java/avro/src/main/java/org/apache/avro/generic/GenericData.java,3.435862,0.000000,0.000000,4.787368,0.000000,0.000000,0.000000,0.000000,0.000000,0.000000,0.000000,1.913611,1.160631,0.359299,1.637956,1.474589,1.294139,3.947372,5.734490,4.273663,3.457546,YES
1.5.2,lang/java/avro/src/main/java/org/apache/avro/generic/GenericEnumSymbol.java,0.024898,0.000000,0.000000,0.000000,0.000000,0.000000,0.000000,0.000000,0.000000,0.000000,0.000000,1.463194,1.160631,1.221016,1.637956,1.713055,0.336831,0.000000,0.000000,0.052118,0.314322,NO
1.5.2,lang/java/avro/src/main/java/org/apache/avro/generic/GenericDatumReader.java,1.705482,0.000000,0.000000,3.191579,0.000000,0.000000,0.000000,0.000000,0.000000,0.000000,0.000000,1.982095,1.160631,0.338325,1.637956,1.584746,1.489147,1.315791,2.211875,0.521178,1.257289,NO
1.5.2,lang/java/avro/src/main/java/org/apache/avro/file/DataFileWriter.java,1.711707,0.311125,0.487176,3.191579,1.265598,0.399234,0.591579,1.024926,0.332877,0.567664,0.942114,1.705523,1.160631,0.474412,1.637956,1.449573,1.666426,0.657895,0.778252,0.260589,0.628645,NO
1.5.2,lang/java/avro/src/main/java/org/apache/avro/file/DataFileStream.java,1.624565,0.016375,0.487176,1.063860,1.265598,0.011407,0.016902,0.029284,0.000000,0.000000,0.000000,1.276179,1.160631,0.599037,1.128370,1.031107,1.258683,0.986843,1.105937,0.521178,0.942967,NO
1.5.2,lang/java/avro/src/main/java/org/apache/avro/file/NullCodec.java,0.217854,0.000000,0.000000,0.000000,0.000000,0.000000,0.000000,0.000000,0.000000,0.000000,0.000000,1.502704,1.160631,0.806134,1.637956,1.498406,0.336831,0.328948,0.040961,0.156354,0.942967,NO
1.5.2,lang/java/avro/src/main/java/org/apache/avro/file/DeflateCodec.java,0.603766,0.000000,0.000000,0.531930,0.000000,0.000000,0.000000,0.000000,0.000000,0.000000,0.000000,0.520218,0.863787,0.558147,1.086223,1.059010,0.549566,0.328948,0.245764,0.260589,0.942967,NO
1.5.2,lang/java/avro/src/main/java/org/apache/avro/file/CodecFactory.java,0.248976,0.000000,0.000000,0.000000,0.000000,0.000000,0.000000,0.000000,0.000000,0.000000,0.000000,0.472805,0.863787,0.887737,1.086223,1.141909,0.514110,0.328948,0.040961,0.104236,0.314322,NO
1.5.2,lang/java/avro/src/main/java/org/apache/avro/file/DataFileReader.java,1.051922,0.000000,0.000000,1.063860,0.000000,0.000000,0.000000,0.000000,0.000000,0.000000,0.000000,1.656794,1.160631,0.592531,1.637956,1.527280,0.886397,0.986843,0.573449,0.781768,2.514579,NO
1.5.2,lang/java/avro/src/main/java/org/apache/avro/file/DataFileConstants.java,0.099590,0.000000,0.000000,0.531930,0.000000,0.000000,0.000000,0.000000,0.000000,0.000000,0.000000,1.431586,1.160631,0.895980,1.637956,1.647674,0.372287,0.000000,0.000000,0.052118,0.314322,NO
1.5.2,lang/java/avro/src/main/java/org/apache/avro/file/DataFileReader12.java,1.045697,0.000000,0.000000,0.000000,0.000000,0.000000,0.000000,0.000000,0.000000,0.000000,0.000000,0.484658,0.863787,1.213323,0.471272,0.521364,0.709117,0.986843,0.778252,0.521178,1.571612,NO
1.5.2,lang/java/avro/src/main/java/org/apache/avro/util/Utf8.java,0.504175,0.000000,0.000000,0.531930,0.000000,0.000000,0.000000,0.000000,0.000000,0.000000,0.000000,1.580408,1.160631,0.913036,1.637956,1.517167,0.567294,0.657895,0.409606,0.469061,0.942967,NO
1.5.2,lang/java/avro/src/main/java/org/apache/avro/util/WeakIdentityHashMap.java,0.740702,0.000000,0.000000,0.000000,0.000000,0.000000,0.000000,0.000000,0.000000,0.000000,0.000000,0.431978,0.863787,1.622160,0.703076,0.786520,0.585022,0.328948,0.204803,1.094475,1.257289,NO
1.5.2,lang/java/avro/src/main/java/org/apache/avro/util/ByteBufferInputStream.java,0.323668,0.000000,0.000000,0.000000,0.000000,0.000000,0.000000,0.000000,0.000000,0.000000,0.000000,1.502704,1.160631,1.128588,1.637956,1.806985,0.531838,0.657895,0.286725,0.208471,0.314322,YES
1.5.2,lang/java/avro/src/main/java/org/apache/avro/util/ByteBufferOutputStream.java,0.435707,0.000000,0.000000,0.000000,0.000000,0.000000,0.000000,0.000000,0.000000,0.000000,0.000000,1.552751,1.160631,1.166175,1.637956,1.708388,0.443198,0.328948,0.245764,0.052118,0.314322,NO
1.5.2,lang/java/ipc/src/main/java/org/apache/avro/ipc/RPCContext.java,0.591317,0.000000,0.000000,1.595789,0.000000,0.000000,0.000000,0.000000,0.000000,0.000000,0.000000,1.120773,1.160631,0.841743,1.421477,1.202829,1.613242,0.328948,0.163843,0.156354,0.628645,NO
1.5.2,lang/java/ipc/src/main/java/org/apache/avro/ipc/NettyTransportCodec.java,0.690907,0.000000,0.000000,0.000000,0.000000,0.000000,0.000000,0.000000,0.000000,0.000000,0.000000,0.445148,0.863787,1.114411,0.779705,0.860439,0.815485,0.657895,0.286725,0.312707,0.942967,NO
1.5.2,lang/java/ipc/src/main/java/org/apache/avro/ipc/SaslSocketTransceiver.java,2.016702,0.000000,0.000000,0.531930,0.000000,0.000000,0.000000,0.000000,0.000000,0.000000,0.000000,0.536022,0.863787,1.006432,0.630278,0.682980,0.638206,1.315791,1.679386,2.501656,3.457546,NO
1.5.2,lang/java/ipc/src/main/java/org/apache/avro/ipc/specific/SpecificResponder.java,0.423258,0.000000,0.000000,2.127719,0.000000,0.000000,0.000000,0.000000,0.000000,0.000000,0.000000,1.726596,1.160631,0.682494,1.637956,1.432599,0.319103,0.328948,0.163843,0.104236,0.628645,YES
1.5.2,lang/java/ipc/src/main/java/org/apache/avro/ipc/specific/SpecificRequestor.java,0.697131,0.638626,1.461528,2.659649,1.265598,0.672994,0.523970,0.575911,0.416096,0.319311,0.392548,1.767423,1.160631,0.577131,1.637956,1.278864,0.496382,0.986843,0.286725,0.156354,0.628645,YES
1.5.2,lang/java/ipc/src/main/java/org/apache/avro/ipc/SocketTransceiver.java,0.497951,0.000000,0.000000,0.531930,0.000000,0.000000,0.000000,0.000000,0.000000,0.000000,0.000000,1.490851,1.160631,0.799776,1.637956,1.704655,0.443198,0.986843,0.409606,0.312707,0.628645,NO
1.5.2,lang/java/ipc/src/main/java/org/apache/avro/ipc/Transceiver.java,0.292546,0.368438,0.974352,0.531930,1.265598,0.467674,0.676091,0.600314,0.384889,0.656362,0.544660,1.471096,1.160631,1.004408,1.637956,1.317111,0.815485,0.328948,0.081921,0.156354,0.628645,NO
1.5.2,lang/java/ipc/src/main/java/org/apache/avro/ipc/reflect/ReflectResponder.java,0.211629,0.000000,0.000000,1.595789,0.000000,0.000000,0.000000,0.000000,0.000000,0.000000,0.000000,1.820103,1.160631,0.650936,1.637956,1.672317,0.336831,0.328948,0.040961,0.052118,0.314322,NO
1.5.2,lang/java/ipc/src/main/java/org/apache/avro/ipc/RPCPlugin.java,0.062244,0.000000,0.000000,0.000000,0.000000,0.000000,0.000000,0.000000,0.000000,0.000000,0.000000,1.044386,1.160631,1.568747,1.421477,1.503482,0.975036,0.000000,0.000000,0.364825,0.314322,NO
1.5.2,lang/java/ipc/src/main/java/org/apache/avro/ipc/NettyServer.java,0.684683,0.171938,0.487176,0.531930,1.265598,0.114067,0.169023,0.292836,0.010402,0.017740,0.029441,0.504414,0.863787,0.631390,0.779705,0.779573,0.443198,0.328948,0.122882,0.104236,0.314322,NO
1.5.2,lang/java/ipc/src/main/java/org/apache/avro/ipc/stats/Histogram.java,1.027024,0.000000,0.000000,0.000000,0.000000,0.000000,0.000000,0.000000,0.000000,0.000000,0.000000,1.018046,1.160631,1.911478,1.113044,1.152116,1.240956,0.657895,0.450567,0.573296,1.885934,NO
1.5.2,lang/java/ipc/src/main/java/org/apache/avro/ipc/stats/Stopwatch.java,0.236527,0.000000,0.000000,0.000000,0.000000,0.000000,0.000000,0.000000,0.000000,0.000000,0.000000,1.012778,1.160631,2.535449,1.113044,1.245144,0.496382,0.657895,0.163843,0.208471,0.628645,NO
1.5.2,lang/java/ipc/src/main/java/org/apache/avro/ipc/stats/StatsServer.java,0.124488,0.000000,0.000000,0.000000,0.000000,0.000000,0.000000,0.000000,0.000000,0.000000,0.000000,0.449099,0.863787,1.686453,0.727980,0.814380,0.496382,0.000000,0.000000,0.052118,0.314322,NO
1.5.2,lang/java/ipc/src/main/java/org/apache/avro/ipc/stats/StatsPlugin.java,1.002126,0.000000,0.000000,0.000000,0.000000,0.000000,0.000000,0.000000,0.000000,0.000000,0.000000,1.054922,1.160631,1.320478,1.113044,0.924602,0.726845,0.328948,0.327685,0.052118,0.314322,NO
1.5.2,lang/java/ipc/src/main/java/org/apache/avro/ipc/stats/StatsServlet.java,1.207531,0.000000,0.000000,0.000000,0.000000,0.000000,0.000000,0.000000,0.000000,0.000000,0.000000,1.054922,1.160631,1.320478,1.113044,0.875948,0.744573,0.328948,0.286725,1.094475,1.571612,NO
1.5.2,lang/java/ipc/src/main/java/org/apache/avro/ipc/DatagramServer.java,0.280097,0.000000,0.000000,0.000000,0.000000,0.000000,0.000000,0.000000,0.000000,0.000000,0.000000,1.498753,1.160631,1.023292,1.637956,1.758958,0.336831,0.657895,0.122882,0.052118,0.314322,NO
1.5.2,lang/java/ipc/src/main/java/org/apache/avro/ipc/DatagramTransceiver.java,0.336117,0.000000,0.000000,0.000000,0.000000,0.000000,0.000000,0.000000,0.000000,0.000000,0.000000,1.025948,1.160631,1.926315,1.318028,1.464554,0.390015,0.657895,0.122882,0.104236,0.314322,NO
1.5.2,lang/java/ipc/src/main/java/org/apache/avro/ipc/NettyTransceiver.java,1.705482,3.708941,0.974352,0.531930,1.265598,3.342157,3.515672,4.290049,1.383520,1.951346,1.957832,0.482024,0.863787,0.603364,0.779705,0.390723,1.595514,0.657895,0.573449,0.312707,1.257289,NO
1.5.2,lang/java/ipc/src/main/java/org/apache/avro/ipc/Responder.java,1.132839,0.139188,0.487176,3.191579,1.265598,0.091253,0.135218,0.234269,0.010402,0.017740,0.029441,1.999216,1.160631,0.441614,1.637956,1.509454,0.762301,0.657895,0.819213,0.573296,0.942967,NO
1.5.2,lang/java/ipc/src/main/java/org/apache/avro/ipc/generic/GenericResponder.java,0.248976,0.000000,0.000000,1.063860,0.000000,0.000000,0.000000,0.000000,0.000000,0.000000,0.000000,1.573823,1.160631,0.985001,1.637956,1.631794,0.319103,0.328948,0.040961,0.052118,0.314322,NO
1.5.2,lang/java/ipc/src/main/java/org/apache/avro/ipc/generic/GenericRequestor.java,0.392136,0.196500,0.974352,1.595789,1.265598,0.228134,0.253534,0.292836,0.166438,0.266093,0.235529,1.710792,1.160631,0.755806,1.637956,1.537122,0.336831,0.657895,0.286725,0.260589,0.628645,YES
1.5.2,lang/java/ipc/src/main/java/org/apache/avro/ipc/HttpTransceiver.java,0.491727,0.000000,0.000000,0.000000,0.000000,0.000000,0.000000,0.000000,0.000000,0.000000,0.000000,1.093115,1.160631,0.912190,1.304617,1.349072,0.390015,0.986843,0.245764,0.052118,0.314322,NO
1.5.2,lang/java/ipc/src/main/java/org/apache/avro/ipc/SocketServer.java,0.628663,0.008188,0.487176,0.531930,1.265598,0.011407,0.016902,0.029284,0.010402,0.017740,0.029441,1.654160,1.160631,0.690187,1.637956,1.633132,0.407743,0.657895,0.327685,0.469061,1.885934,YES
1.5.2,lang/java/ipc/src/main/java/org/apache/avro/ipc/trace/InMemorySpanStorage.java,0.280097,0.000000,0.000000,0.000000,0.000000,0.000000,0.000000,0.000000,0.000000,0.000000,0.000000,0.462269,0.863787,1.157273,0.712654,0.794663,0.425470,0.657895,0.163843,0.052118,0.314322,NO
1.5.2,lang/java/ipc/src/main/java/org/apache/avro/ipc/trace/FileSpanStorage.java,1.319570,0.000000,0.000000,0.000000,0.000000,0.000000,0.000000,0.000000,0.000000,0.000000,0.000000,0.439880,0.863787,1.651834,0.697329,0.780090,1.861433,0.986843,0.942095,0.938121,2.200256,NO
1.5.2,lang/java/ipc/src/main/java/org/apache/avro/ipc/trace/Trace.java,0.784273,0.000000,0.000000,0.000000,0.000000,0.000000,0.000000,0.000000,0.000000,0.000000,0.000000,0.517584,0.863787,0.971812,0.712654,0.796456,1.772794,1.644738,0.819213,0.469061,0.942967,NO
1.5.2,lang/java/ipc/src/main/java/org/apache/avro/ipc/trace/TraceCollection.java,1.232429,0.000000,0.000000,0.000000,0.000000,0.000000,0.000000,0.000000,0.000000,0.000000,0.000000,0.470171,0.863787,1.177055,0.678171,0.756853,1.365051,0.986843,0.573449,0.416943,1.571612,NO
1.5.2,lang/java/ipc/src/main/java/org/apache/avro/ipc/trace/TraceClientServlet.java,1.188858,0.000000,0.000000,0.000000,0.000000,0.000000,0.000000,0.000000,0.000000,0.000000,0.000000,0.576849,0.863787,1.083089,0.712654,0.759414,0.726845,0.986843,0.819213,0.573296,1.885934,NO
1.5.2,lang/java/ipc/src/main/java/org/apache/avro/ipc/trace/TracePlugin.java,1.668136,0.000000,0.000000,0.000000,0.000000,0.000000,0.000000,0.000000,0.000000,0.000000,0.000000,0.651918,0.863787,0.612019,0.712654,0.782456,1.365051,0.986843,1.105937,0.573296,2.200256,NO
1.5.2,lang/java/ipc/src/main/java/org/apache/avro/ipc/trace/TracePluginConfiguration.java,0.273873,0.000000,0.000000,0.000000,0.000000,0.000000,0.000000,0.000000,0.000000,0.000000,0.000000,0.505731,0.863787,0.759646,0.712654,0.780725,0.638206,0.328948,0.040961,0.156354,0.942967,NO
1.5.2,lang/java/ipc/src/main/java/org/apache/avro/ipc/trace/Util.java,0.865190,0.000000,0.000000,0.000000,0.000000,0.000000,0.000000,0.000000,0.000000,0.000000,0.000000,0.507048,0.863787,0.761624,0.712654,0.785868,1.081404,1.315791,0.983055,0.521178,1.885934,NO
1.5.2,lang/java/ipc/src/main/java/org/apache/avro/ipc/trace/SpanAggregator.java,0.666010,0.000000,0.000000,0.531930,0.000000,0.000000,0.000000,0.000000,0.000000,0.000000,0.000000,0.489926,0.863787,0.919883,0.712654,0.786428,0.975036,1.973686,0.614410,0.312707,0.942967,NO
1.5.2,lang/java/ipc/src/main/java/org/apache/avro/ipc/SaslSocketServer.java,0.423258,0.000000,0.000000,0.000000,0.000000,0.000000,0.000000,0.000000,0.000000,0.000000,0.000000,0.435929,0.863787,1.636997,0.630278,0.705082,0.390015,0.328948,0.040961,0.781768,1.885934,NO
1.5.2,lang/java/ipc/src/main/java/org/apache/avro/ipc/Ipc.java,0.161834,0.000000,0.000000,0.000000,0.000000,0.000000,0.000000,0.000000,0.000000,0.000000,0.000000,0.433295,0.863787,1.627106,0.471272,0.527204,0.390015,0.657895,0.163843,0.364825,0.628645,NO
1.5.2,lang/java/ipc/src/main/java/org/apache/avro/ipc/Requestor.java,2.340370,3.995504,1.461528,3.191579,1.265598,4.311725,6.101719,3.689735,2.787844,4.559054,2.630069,2.026873,1.160631,0.447723,1.637956,0.968656,2.304632,0.657895,1.556504,0.573296,0.314322,YES
1.5.2,lang/java/tools/src/main/java/org/apache/avro/tool/TetherTool.java,0.410810,0.000000,0.000000,0.531930,0.000000,0.000000,0.000000,0.000000,0.000000,0.000000,0.000000,0.023706,0.032091,0.089021,0.402305,0.443149,0.301375,0.328948,0.122882,0.104236,0.314322,NO
1.5.2,lang/java/tools/src/main/java/org/apache/avro/tool/DataFileWriteTool.java,0.666010,0.000000,0.000000,0.000000,0.000000,0.000000,0.000000,0.000000,0.000000,0.000000,0.000000,1.106286,1.160631,1.186946,1.130285,1.057958,0.319103,0.657895,0.327685,0.156354,0.942967,NO
1.5.2,lang/java/tools/src/main/java/org/apache/avro/tool/JsonToBinaryFragmentTool.java,0.348566,0.000000,0.000000,0.531930,0.000000,0.000000,0.000000,0.000000,0.000000,0.000000,0.000000,1.127358,1.160631,1.411147,1.130285,1.129982,0.319103,0.328948,0.122882,0.104236,0.628645,NO
1.5.2,lang/java/tools/src/main/java/org/apache/avro/tool/RpcReceiveTool.java,0.865190,0.000000,0.000000,0.000000,0.000000,0.000000,0.000000,0.000000,0.000000,0.000000,0.000000,1.220865,1.160631,1.146145,1.128370,1.177416,0.407743,0.657895,0.368646,0.104236,0.628645,NO
1.5.2,lang/java/tools/src/main/java/org/apache/avro/tool/BinaryFragmentToJsonTool.java,0.385912,0.000000,0.000000,0.000000,0.000000,0.000000,0.000000,0.000000,0.000000,0.000000,0.000000,1.155015,1.160631,1.445767,1.130285,1.201560,0.319103,0.328948,0.122882,0.104236,0.628645,YES
1.5.2,lang/java/tools/src/main/java/org/apache/avro/tool/Main.java,0.392136,0.000000,0.000000,0.531930,0.000000,0.000000,0.000000,0.000000,0.000000,0.000000,0.000000,1.295934,1.160631,0.572527,1.252893,1.264191,0.425470,0.657895,0.245764,0.052118,0.314322,NO
1.5.2,lang/java/tools/src/main/java/org/apache/avro/tool/FromTextTool.java,0.572644,0.000000,0.000000,0.000000,0.000000,0.000000,0.000000,0.000000,0.000000,0.000000,0.000000,1.078628,1.160631,1.157273,1.130285,0.903294,0.443198,1.644738,0.368646,0.052118,0.314322,NO
1.5.2,lang/java/tools/src/main/java/org/apache/avro/tool/RecodecTool.java,0.535297,0.000000,0.000000,0.000000,0.000000,0.000000,0.000000,0.000000,0.000000,0.000000,0.000000,0.431978,0.863787,1.622160,0.503839,0.563637,0.319103,0.657895,0.327685,0.312707,0.942967,NO
1.5.2,lang/java/tools/src/main/java/org/apache/avro/tool/InduceSchemaTool.java,0.304995,0.000000,0.000000,0.000000,0.000000,0.000000,0.000000,0.000000,0.000000,0.000000,0.000000,1.128675,1.160631,1.059597,1.206915,1.301630,0.354559,0.986843,0.204803,0.052118,0.314322,NO
1.5.2,lang/java/tools/src/main/java/org/apache/avro/tool/Util.java,0.485502,0.000000,0.000000,0.000000,0.000000,0.000000,0.000000,0.000000,0.000000,0.000000,0.000000,1.518509,1.160631,0.877275,1.637956,1.351266,0.620478,0.986843,0.245764,0.312707,0.942967,NO
1.5.2,lang/java/tools/src/main/java/org/apache/avro/tool/IdlTool.java,0.292546,0.000000,0.000000,0.000000,0.000000,0.000000,0.000000,0.000000,0.000000,0.000000,0.000000,1.172136,1.160631,1.257598,1.128370,1.147963,0.372287,0.328948,0.122882,0.208471,0.942967,NO
1.5.2,lang/java/compiler/src/main/java/org/apache/avro/compiler/specific/SpecificCompiler.java,2.103843,0.000000,0.000000,3.191579,0.000000,0.000000,0.000000,0.000000,0.000000,0.000000,0.000000,1.975510,1.160631,0.345043,1.637956,1.391310,0.992764,1.315791,2.908206,0.416943,0.628645,NO
1.5.2,lang/java/compiler/src/main/java/org/apache/avro/compiler/specific/ProtocolTask.java,0.292546,0.000000,0.000000,0.000000,0.000000,0.000000,0.000000,0.000000,0.000000,0.000000,0.000000,1.509290,1.160631,1.259482,1.637956,1.779203,0.390015,0.657895,0.245764,0.364825,1.571612,NO
1.5.3,lang/java/mapred/src/main/java/org/apache/avro/mapred/AvroAsTextRecordReader.java,0.410810,0.000000,0.000000,0.531930,0.000000,0.000000,0.000000,0.000000,0.000000,0.000000,0.000000,0.541290,0.863787,0.580756,0.988521,0.762468,0.319103,0.657895,0.163843,0.052118,0.314322,NO
1.5.3,lang/java/mapred/src/main/java/org/apache/avro/mapred/AvroReducer.java,0.168058,0.000000,0.000000,0.000000,0.000000,0.000000,0.000000,0.000000,0.000000,0.000000,0.000000,0.517584,0.863787,0.971812,0.988521,0.896523,0.514110,0.328948,0.081921,0.104236,0.628645,NO
1.5.3,lang/java/mapred/src/main/java/org/apache/avro/mapred/AvroTextOutputFormat.java,0.585092,0.000000,0.000000,0.000000,0.000000,0.000000,0.000000,0.000000,0.000000,0.000000,0.000000,0.007902,0.016046,0.059347,0.176248,0.197166,0.336831,0.986843,0.245764,0.156354,0.628645,NO
1.5.3,lang/java/mapred/src/main/java/org/apache/avro/mapred/SequenceFileReader.java,1.201307,0.000000,0.000000,0.000000,0.000000,0.000000,0.000000,0.000000,0.000000,0.000000,0.000000,0.438563,0.863787,1.646888,0.664761,0.743658,0.390015,0.328948,0.368646,1.146592,1.885934,NO
1.5.3,lang/java/mapred/src/main/java/org/apache/avro/mapred/AvroOutputFormat.java,0.485502,0.000000,0.000000,0.531930,0.000000,0.000000,0.000000,0.000000,0.000000,0.000000,0.000000,0.595287,0.863787,0.496759,0.988521,0.792858,0.443198,0.657895,0.245764,0.104236,0.314322,NO
1.5.3,lang/java/mapred/src/main/java/org/apache/avro/mapred/AvroRecordReader.java,0.336117,0.000000,0.000000,0.531930,0.000000,0.000000,0.000000,0.000000,0.000000,0.000000,0.000000,0.534705,0.863787,0.669306,0.988521,0.989145,0.336831,0.328948,0.122882,0.052118,0.314322,NO
1.5.3,lang/java/mapred/src/main/java/org/apache/avro/mapred/AvroSerialization.java,0.566419,0.000000,0.000000,0.531930,0.000000,0.000000,0.000000,0.000000,0.000000,0.000000,0.000000,0.670356,0.863787,0.719233,0.988521,0.981197,0.514110,0.657895,0.286725,0.052118,0.314322,NO
1.5.3,lang/java/mapred/src/main/java/org/apache/avro/mapred/HadoopMapper.java,0.354790,0.000000,0.000000,0.000000,0.000000,0.000000,0.000000,0.000000,0.000000,0.000000,0.000000,0.493877,0.863787,1.236402,0.775874,0.805047,0.372287,0.328948,0.081921,0.260589,0.628645,NO
1.5.3,lang/java/mapred/src/main/java/org/apache/avro/mapred/FsInput.java,0.186732,0.000000,0.000000,0.000000,0.000000,0.000000,0.000000,0.000000,0.000000,0.000000,0.000000,0.449099,0.863787,1.686453,0.988521,1.105842,0.336831,0.000000,0.000000,0.052118,0.314322,NO
1.5.3,lang/java/mapred/src/main/java/org/apache/avro/mapred/AvroKeyComparator.java,0.143161,0.000000,0.000000,0.531930,0.000000,0.000000,0.000000,0.000000,0.000000,0.000000,0.000000,0.567630,0.863787,0.710519,0.988521,1.009573,0.319103,0.328948,0.040961,0.052118,0.314322,NO
1.5.3,lang/java/mapred/src/main/java/org/apache/avro/mapred/AvroMapper.java,0.124488,0.000000,0.000000,0.000000,0.000000,0.000000,0.000000,0.000000,0.000000,0.000000,0.000000,0.517584,0.863787,0.971812,0.988521,0.898485,0.478654,0.000000,0.000000,0.104236,0.314322,NO
1.5.3,lang/java/mapred/src/main/java/org/apache/avro/mapred/AvroAsTextInputFormat.java,0.180507,0.000000,0.000000,0.000000,0.000000,0.000000,0.000000,0.000000,0.000000,0.000000,0.000000,0.455684,0.863787,1.140787,0.988521,0.820683,0.460926,0.657895,0.081921,0.104236,0.314322,NO
1.5.3,lang/java/mapred/src/main/java/org/apache/avro/mapred/AvroWrapper.java,0.161834,0.000000,0.000000,1.063860,0.000000,0.000000,0.000000,0.000000,0.000000,0.000000,0.000000,1.152381,1.160631,0.865482,1.421477,1.323481,0.390015,0.657895,0.286725,0.364825,0.628645,NO
1.5.3,lang/java/mapred/src/main/java/org/apache/avro/mapred/HadoopReducerBase.java,0.255200,0.000000,0.000000,0.000000,0.000000,0.000000,0.000000,0.000000,0.000000,0.000000,0.000000,0.493877,0.863787,1.236402,0.775874,0.824938,0.301375,0.328948,0.040961,0.416943,0.942967,NO
1.5.3,lang/java/mapred/src/main/java/org/apache/avro/mapred/AvroInputFormat.java,0.186732,0.000000,0.000000,0.000000,0.000000,0.000000,0.000000,0.000000,0.000000,0.000000,0.000000,0.449099,0.863787,1.686453,0.988521,1.105842,0.319103,0.657895,0.081921,0.104236,0.314322,NO
1.5.3,lang/java/mapred/src/main/java/org/apache/avro/mapred/tether/TetherKeySerialization.java,0.336117,0.000000,0.000000,0.000000,0.000000,0.000000,0.000000,0.000000,0.000000,0.000000,0.000000,0.583434,0.863787,1.095453,0.844840,0.895925,0.319103,0.328948,0.040961,0.156354,0.628645,NO
1.5.3,lang/java/mapred/src/main/java/org/apache/avro/mapred/tether/TetheredProcess.java,0.553971,0.000000,0.000000,0.000000,0.000000,0.000000,0.000000,0.000000,0.000000,0.000000,0.000000,0.620310,0.863787,0.931753,0.844840,0.926349,0.460926,0.657895,0.286725,0.312707,0.942967,YES
1.5.3,lang/java/mapred/src/main/java/org/apache/avro/mapred/tether/TetherMapRunner.java,0.342341,0.000000,0.000000,0.000000,0.000000,0.000000,0.000000,0.000000,0.000000,0.000000,0.000000,0.474122,0.863787,1.780420,0.844840,0.945109,0.407743,0.657895,0.204803,0.208471,0.628645,NO
1.5.3,lang/java/mapred/src/main/java/org/apache/avro/mapred/tether/TetherOutputService.java,0.410810,0.000000,0.000000,0.000000,0.000000,0.000000,0.000000,0.000000,0.000000,0.000000,0.000000,0.510999,0.863787,1.279264,0.844840,0.936460,0.301375,0.328948,0.122882,0.364825,1.257289,NO
1.5.3,lang/java/mapred/src/main/java/org/apache/avro/mapred/tether/TetherRecordReader.java,0.311219,0.000000,0.000000,0.000000,0.000000,0.000000,0.000000,0.000000,0.000000,0.000000,0.000000,0.497828,0.863787,1.246294,0.988521,1.056585,0.319103,0.328948,0.081921,0.052118,0.314322,NO
1.5.3,lang/java/mapred/src/main/java/org/apache/avro/mapred/tether/TetherReducer.java,0.329893,0.000000,0.000000,0.000000,0.000000,0.000000,0.000000,0.000000,0.000000,0.000000,0.000000,0.474122,0.863787,1.780420,0.844840,0.945109,0.354559,0.328948,0.245764,0.156354,0.314322,NO
1.5.3,lang/java/mapred/src/main/java/org/apache/avro/mapred/tether/TetherInputFormat.java,0.192956,0.000000,0.000000,0.000000,0.000000,0.000000,0.000000,0.000000,0.000000,0.000000,0.000000,0.497828,0.863787,1.246294,0.988521,1.073696,0.319103,0.657895,0.081921,0.104236,0.314322,NO
1.5.3,lang/java/mapred/src/main/java/org/apache/avro/mapred/tether/TetherData.java,0.074693,0.000000,0.000000,0.000000,0.000000,0.000000,0.000000,0.000000,0.000000,0.000000,0.000000,1.463194,1.160631,1.098914,1.672439,1.563783,0.407743,0.000000,0.000000,0.052118,0.314322,NO
1.5.3,lang/java/mapred/src/main/java/org/apache/avro/mapred/tether/TetherKeyComparator.java,0.205405,0.000000,0.000000,0.000000,0.000000,0.000000,0.000000,0.000000,0.000000,0.000000,0.000000,0.504414,0.863787,0.947084,0.988521,1.019827,0.319103,0.328948,0.122882,0.104236,0.628645,NO
1.5.3,lang/java/mapred/src/main/java/org/apache/avro/mapred/tether/TetherPartitioner.java,0.186732,0.000000,0.000000,0.000000,0.000000,0.000000,0.000000,0.000000,0.000000,0.000000,0.000000,0.475439,0.863787,1.190243,0.844840,0.945109,0.319103,0.328948,0.081921,0.104236,0.314322,NO
1.5.3,lang/java/mapred/src/main/java/org/apache/avro/mapred/HadoopReducer.java,0.192956,0.000000,0.000000,0.000000,0.000000,0.000000,0.000000,0.000000,0.000000,0.000000,0.000000,0.474122,0.863787,1.780420,0.775874,0.867958,0.336831,0.000000,0.000000,0.052118,0.314322,NO
1.5.3,lang/java/mapred/src/main/java/org/apache/avro/mapred/Pair.java,2.744955,0.000000,0.000000,0.531930,0.000000,0.000000,0.000000,0.000000,0.000000,0.000000,0.000000,0.525486,0.863787,0.986649,0.775874,0.821973,0.992764,0.657895,0.409606,0.260589,0.628645,NO
1.5.3,lang/java/mapred/src/main/java/org/apache/avro/mapred/AvroJob.java,0.715805,0.000000,0.000000,0.531930,0.000000,0.000000,0.000000,0.000000,0.000000,0.000000,0.000000,0.603189,0.863787,0.503353,0.988521,0.890124,0.850941,0.328948,0.245764,0.260589,0.628645,NO
1.5.3,lang/java/avro/src/main/java/org/apache/avro/Protocol.java,1.991804,0.000000,0.000000,1.063860,0.000000,0.000000,0.000000,0.000000,0.000000,0.000000,0.000000,1.708158,1.160631,0.534538,1.672439,1.742888,1.258683,0.986843,1.720347,1.824124,1.257289,YES
1.5.3,lang/java/avro/src/main/java/org/apache/avro/specific/SpecificDatumWriter.java,0.186732,0.000000,0.000000,1.063860,0.000000,0.000000,0.000000,0.000000,0.000000,0.000000,0.000000,1.586993,1.160631,0.794595,1.672439,1.712310,0.336831,0.328948,0.040961,0.104236,0.314322,NO
1.5.3,lang/java/avro/src/main/java/org/apache/avro/specific/SpecificData.java,0.995902,0.000000,0.000000,3.723509,0.000000,0.000000,0.000000,0.000000,0.000000,0.000000,0.000000,1.347298,1.160631,0.439944,1.392741,1.315265,0.496382,3.947372,1.843229,1.250828,2.514579,NO
1.5.3,lang/java/avro/src/main/java/org/apache/avro/specific/SpecificDatumReader.java,0.404585,0.000000,0.000000,1.595789,0.000000,0.000000,0.000000,0.000000,0.000000,0.000000,0.000000,1.689719,1.160631,0.576838,1.672439,1.723266,0.531838,0.657895,0.368646,0.208471,0.628645,NO
1.5.3,lang/java/avro/src/main/java/org/apache/avro/specific/SpecificExceptionBase.java,0.112039,0.000000,0.000000,1.063860,0.000000,0.000000,0.000000,0.000000,0.000000,0.000000,0.000000,1.536947,1.160631,1.049368,1.672439,1.778940,0.372287,0.328948,0.122882,0.312707,0.942967,NO
1.5.3,lang/java/avro/src/main/java/org/apache/avro/specific/SpecificRecordBase.java,0.168058,0.000000,0.000000,1.595789,0.000000,0.000000,0.000000,0.000000,0.000000,0.000000,0.000000,1.155015,1.160631,1.084325,1.568989,1.588486,0.372287,0.328948,0.122882,0.208471,0.628645,NO
1.5.3,lang/java/avro/src/main/java/org/apache/avro/AvroRemoteException.java,0.093366,0.000000,0.000000,0.000000,0.000000,0.000000,0.000000,0.000000,0.000000,0.000000,0.000000,1.502704,1.160631,1.410735,1.672439,1.845214,0.319103,0.328948,0.040961,0.052118,0.314322,YES
1.5.3,lang/java/avro/src/main/java/org/apache/avro/Schema.java,6.989988,0.802376,0.487176,6.383158,1.265598,0.878314,1.301475,2.254838,0.582535,0.993413,1.648700,1.966291,1.160631,0.268502,1.672439,1.536742,3.917874,2.960529,7.413877,11.726514,6.286447,YES
1.5.3,lang/java/avro/src/main/java/org/apache/avro/reflect/ReflectDatumWriter.java,0.473053,0.000000,0.000000,3.723509,0.000000,0.000000,0.000000,0.000000,0.000000,0.000000,0.000000,1.854345,1.160631,0.449253,1.672439,1.614938,0.425470,0.657895,0.286725,0.573296,1.257289,NO
1.5.3,lang/java/avro/src/main/java/org/apache/avro/reflect/ReflectDatumReader.java,0.628663,0.000000,0.000000,2.127719,0.000000,0.000000,0.000000,0.000000,0.000000,0.000000,0.000000,1.764789,1.160631,0.490898,1.672439,1.636162,0.443198,0.657895,0.450567,0.521178,0.942967,NO
1.5.3,lang/java/avro/src/main/java/org/apache/avro/reflect/ReflectData.java,2.502204,0.000000,0.000000,5.851228,0.000000,0.000000,0.000000,0.000000,0.000000,0.000000,0.000000,1.991314,1.160631,0.364769,1.672439,1.545948,1.223228,3.947372,3.604537,2.918599,3.771868,YES
1.5.3,lang/java/avro/src/main/java/org/apache/avro/io/ParsingEncoder.java,0.224078,0.000000,0.000000,0.000000,0.000000,0.000000,0.000000,0.000000,0.000000,0.000000,0.000000,1.115505,1.160631,1.675573,1.473202,1.624964,0.425470,0.328948,0.122882,0.052118,0.314322,NO
1.5.3,lang/java/avro/src/main/java/org/apache/avro/io/EncoderFactory.java,0.522849,0.000000,0.000000,0.000000,0.000000,0.000000,0.000000,0.000000,0.000000,0.000000,0.000000,0.121165,0.120342,0.303331,0.356327,0.398432,4.148337,0.328948,0.286725,0.260589,0.628645,NO
1.5.3,lang/java/avro/src/main/java/org/apache/avro/io/parsing/ResolvingGrammarGenerator.java,2.259453,0.000000,0.000000,2.659649,0.000000,0.000000,0.000000,0.000000,0.000000,0.000000,0.000000,1.336762,1.160631,0.501979,1.473202,1.404750,1.489147,1.644738,3.768379,1.772007,2.514579,NO
1.5.3,lang/java/avro/src/main/java/org/apache/avro/io/parsing/ValidatingGrammarGenerator.java,0.510400,0.000000,0.000000,0.531930,0.000000,0.000000,0.000000,0.000000,0.000000,0.000000,0.000000,1.230084,1.160631,0.923840,1.473202,1.584912,0.762301,1.315791,0.737292,0.312707,1.571612,NO
1.5.3,lang/java/avro/src/main/java/org/apache/avro/io/parsing/SkipParser.java,0.273873,0.000000,0.000000,0.531930,0.000000,0.000000,0.000000,0.000000,0.000000,0.000000,0.000000,1.182672,1.160631,0.986924,1.473202,1.581379,0.762301,0.986843,0.122882,0.104236,0.628645,NO
1.5.3,lang/java/avro/src/main/java/org/apache/avro/io/parsing/Symbol.java,2.234555,0.000000,0.000000,1.595789,0.000000,0.000000,0.000000,0.000000,0.000000,0.000000,0.000000,1.220865,1.160631,0.611277,1.473202,1.489168,2.180536,0.986843,0.655370,0.729650,1.257289,NO
1.5.3,lang/java/avro/src/main/java/org/apache/avro/io/parsing/JsonGrammarGenerator.java,0.361015,0.000000,0.000000,1.063860,0.000000,0.000000,0.000000,0.000000,0.000000,0.000000,0.000000,1.201110,1.160631,1.002310,1.473202,1.572479,0.620478,1.315791,0.655370,0.208471,0.314322,NO
1.5.3,lang/java/avro/src/main/java/org/apache/avro/io/parsing/Parser.java,0.609990,0.000000,0.000000,1.063860,0.000000,0.000000,0.000000,0.000000,0.000000,0.000000,0.000000,1.191891,1.160631,0.895155,1.473202,1.428940,1.400507,1.315791,0.532488,0.156354,0.314322,NO
1.5.3,lang/java/avro/src/main/java/org/apache/avro/io/JsonEncoder.java,1.288448,0.000000,0.000000,1.595789,0.000000,0.000000,0.000000,0.000000,0.000000,0.000000,0.000000,1.320958,1.160631,0.708635,1.473202,1.340226,0.992764,0.986843,0.655370,0.104236,0.314322,NO
1.5.3,lang/java/avro/src/main/java/org/apache/avro/io/BlockingBinaryEncoder.java,2.259453,0.000000,0.000000,1.063860,0.000000,0.000000,0.000000,0.000000,0.000000,0.000000,0.000000,1.299885,1.160631,0.887512,1.563242,1.381596,2.375543,1.315791,1.433623,0.833885,1.257289,NO
1.5.3,lang/java/avro/src/main/java/org/apache/avro/io/DirectBinaryEncoder.java,0.466829,0.000000,0.000000,0.000000,0.000000,0.000000,0.000000,0.000000,0.000000,0.000000,0.000000,0.059265,0.120342,0.445105,0.356327,0.398618,0.797757,0.657895,0.245764,0.052118,0.314322,NO
1.5.3,lang/java/avro/src/main/java/org/apache/avro/io/BinaryDecoder.java,4.027179,0.000000,0.000000,0.000000,0.000000,0.000000,0.000000,0.000000,0.000000,0.000000,0.000000,1.235352,1.160631,0.843451,1.528759,1.236749,4.378800,1.973686,2.580521,2.605892,2.828901,NO
1.5.3,lang/java/avro/src/main/java/org/apache/avro/io/BinaryData.java,2.153638,0.000000,0.000000,0.000000,0.000000,0.000000,0.000000,0.000000,0.000000,0.000000,0.000000,1.265643,1.160631,0.864133,1.396573,1.187873,1.205500,2.960529,3.276852,2.501656,2.200256,NO
1.5.3,lang/java/avro/src/main/java/org/apache/avro/io/BinaryEncoder.java,0.423258,0.000000,0.000000,0.531930,0.000000,0.000000,0.000000,0.000000,0.000000,0.000000,0.000000,1.619918,1.160631,0.935862,1.672439,1.482961,0.638206,0.328948,0.122882,0.208471,0.314322,NO
1.5.3,lang/java/avro/src/main/java/org/apache/avro/io/Encoder.java,0.248976,0.000000,0.000000,0.000000,0.000000,0.000000,0.000000,0.000000,0.000000,0.000000,0.000000,1.535630,1.160631,0.887166,1.672439,1.734154,3.900146,0.328948,0.040961,0.104236,0.314322,NO
1.5.3,lang/java/avro/src/main/java/org/apache/avro/io/BufferedBinaryEncoder.java,0.784273,0.000000,0.000000,0.000000,0.000000,0.000000,0.000000,0.000000,0.000000,0.000000,0.000000,0.109312,0.120342,0.410486,0.356327,0.398618,1.063676,0.986843,0.450567,0.208471,1.257289,NO
1.5.3,lang/java/avro/src/main/java/org/apache/avro/io/DecoderFactory.java,0.585092,0.000000,0.000000,0.000000,0.000000,0.000000,0.000000,0.000000,0.000000,0.000000,0.000000,0.578166,0.863787,0.868449,1.067066,0.758760,3.545587,0.328948,0.245764,0.208471,0.942967,NO
1.5.3,lang/java/avro/src/main/java/org/apache/avro/io/JsonDecoder.java,2.334146,0.000000,0.000000,1.063860,0.000000,0.000000,0.000000,0.000000,0.000000,0.000000,0.000000,1.299885,1.160631,0.697331,1.473202,1.412408,0.833213,1.644738,1.720347,0.156354,0.628645,NO
1.5.3,lang/java/avro/src/main/java/org/apache/avro/generic/GenericData.java,3.435862,0.000000,0.000000,4.787368,0.000000,0.000000,0.000000,0.000000,0.000000,0.000000,0.000000,1.913611,1.160631,0.359299,1.672439,1.513165,1.294139,3.947372,5.734490,4.325781,3.457546,YES
1.5.3,lang/java/avro/src/main/java/org/apache/avro/generic/GenericEnumSymbol.java,0.024898,0.000000,0.000000,0.000000,0.000000,0.000000,0.000000,0.000000,0.000000,0.000000,0.000000,1.463194,1.160631,1.221016,1.672439,1.751631,0.336831,0.000000,0.000000,0.052118,0.314322,NO
1.5.3,lang/java/avro/src/main/java/org/apache/avro/generic/GenericDatumReader.java,1.705482,0.000000,0.000000,3.191579,0.000000,0.000000,0.000000,0.000000,0.000000,0.000000,0.000000,1.982095,1.160631,0.338325,1.672439,1.623322,1.489147,1.315791,2.211875,0.521178,1.257289,NO
1.5.3,lang/java/avro/src/main/java/org/apache/avro/file/DataFileWriter.java,1.711707,0.000000,0.000000,3.191579,0.000000,0.000000,0.000000,0.000000,0.000000,0.000000,0.000000,1.705523,1.160631,0.474412,1.672439,1.488149,1.666426,0.657895,0.778252,0.364825,1.257289,NO
1.5.3,lang/java/avro/src/main/java/org/apache/avro/file/SnappyCodec.java,0.311219,0.000000,0.000000,0.531930,0.000000,0.000000,0.000000,0.000000,0.000000,0.000000,0.000000,0.042144,0.040114,0.105506,0.279698,0.229449,0.319103,0.328948,0.122882,0.260589,0.942967,NO
1.5.3,lang/java/avro/src/main/java/org/apache/avro/file/DataFileStream.java,1.624565,0.000000,0.000000,1.063860,0.000000,0.000000,0.000000,0.000000,0.000000,0.000000,0.000000,1.276179,1.160631,0.599037,1.162853,1.069683,1.258683,0.986843,1.105937,0.521178,0.942967,NO
1.5.3,lang/java/avro/src/main/java/org/apache/avro/file/NullCodec.java,0.217854,0.000000,0.000000,0.000000,0.000000,0.000000,0.000000,0.000000,0.000000,0.000000,0.000000,1.502704,1.160631,0.806134,1.672439,1.536982,0.336831,0.328948,0.040961,0.156354,0.942967,NO
1.5.3,lang/java/avro/src/main/java/org/apache/avro/file/DeflateCodec.java,0.603766,0.000000,0.000000,0.531930,0.000000,0.000000,0.000000,0.000000,0.000000,0.000000,0.000000,0.520218,0.863787,0.558147,1.120707,1.097586,0.549566,0.328948,0.245764,0.260589,0.942967,NO
1.5.3,lang/java/avro/src/main/java/org/apache/avro/file/CodecFactory.java,0.248976,0.000000,0.000000,0.000000,0.000000,0.000000,0.000000,0.000000,0.000000,0.000000,0.000000,0.472805,0.863787,0.887737,1.120707,1.180485,0.514110,0.328948,0.040961,0.156354,0.314322,NO
1.5.3,lang/java/avro/src/main/java/org/apache/avro/file/DataFileReader.java,1.051922,0.000000,0.000000,1.063860,0.000000,0.000000,0.000000,0.000000,0.000000,0.000000,0.000000,1.656794,1.160631,0.592531,1.672439,1.565856,0.886397,0.986843,0.573449,0.781768,2.514579,NO
1.5.3,lang/java/avro/src/main/java/org/apache/avro/file/DataFileConstants.java,0.099590,0.000000,0.000000,0.531930,0.000000,0.000000,0.000000,0.000000,0.000000,0.000000,0.000000,1.431586,1.160631,0.895980,1.672439,1.686250,0.372287,0.000000,0.000000,0.052118,0.314322,NO
1.5.3,lang/java/avro/src/main/java/org/apache/avro/file/DataFileReader12.java,1.045697,0.000000,0.000000,0.000000,0.000000,0.000000,0.000000,0.000000,0.000000,0.000000,0.000000,0.484658,0.863787,1.213323,0.505755,0.559940,0.709117,0.986843,0.778252,0.521178,1.571612,NO
1.5.3,lang/java/avro/src/main/java/org/apache/avro/util/Utf8.java,0.504175,0.000000,0.000000,0.531930,0.000000,0.000000,0.000000,0.000000,0.000000,0.000000,0.000000,1.580408,1.160631,0.913036,1.672439,1.555743,0.567294,0.657895,0.409606,0.469061,0.942967,NO
1.5.3,lang/java/avro/src/main/java/org/apache/avro/util/WeakIdentityHashMap.java,0.740702,0.000000,0.000000,0.000000,0.000000,0.000000,0.000000,0.000000,0.000000,0.000000,0.000000,0.431978,0.863787,1.622160,0.737559,0.825096,0.585022,0.328948,0.204803,1.094475,1.257289,NO
1.5.3,lang/java/avro/src/main/java/org/apache/avro/util/ByteBufferInputStream.java,0.323668,0.000000,0.000000,0.000000,0.000000,0.000000,0.000000,0.000000,0.000000,0.000000,0.000000,1.502704,1.160631,1.128588,1.672439,1.845561,0.531838,0.657895,0.286725,0.208471,0.314322,YES
1.5.3,lang/java/avro/src/main/java/org/apache/avro/util/ByteBufferOutputStream.java,0.435707,0.000000,0.000000,0.000000,0.000000,0.000000,0.000000,0.000000,0.000000,0.000000,0.000000,1.552751,1.160631,1.166175,1.672439,1.746964,0.443198,0.328948,0.245764,0.052118,0.314322,NO
1.5.3,lang/java/ipc/src/main/java/org/apache/avro/ipc/RPCContext.java,0.591317,0.000000,0.000000,1.595789,0.000000,0.000000,0.000000,0.000000,0.000000,0.000000,0.000000,1.120773,1.160631,0.841743,1.455961,1.241405,1.613242,0.328948,0.163843,0.156354,0.628645,NO
1.5.3,lang/java/ipc/src/main/java/org/apache/avro/ipc/NettyTransportCodec.java,0.690907,0.000000,0.000000,0.000000,0.000000,0.000000,0.000000,0.000000,0.000000,0.000000,0.000000,0.445148,0.863787,1.114411,0.814189,0.899015,0.815485,0.657895,0.286725,0.312707,0.942967,NO
1.5.3,lang/java/ipc/src/main/java/org/apache/avro/ipc/SaslSocketTransceiver.java,2.016702,0.000000,0.000000,0.531930,0.000000,0.000000,0.000000,0.000000,0.000000,0.000000,0.000000,0.536022,0.863787,1.006432,0.664761,0.721556,0.638206,1.315791,1.679386,2.553774,3.457546,NO
1.5.3,lang/java/ipc/src/main/java/org/apache/avro/ipc/specific/SpecificResponder.java,0.423258,0.000000,0.000000,2.127719,0.000000,0.000000,0.000000,0.000000,0.000000,0.000000,0.000000,1.726596,1.160631,0.682494,1.672439,1.471175,0.319103,0.328948,0.163843,0.104236,0.628645,YES
1.5.3,lang/java/ipc/src/main/java/org/apache/avro/ipc/specific/SpecificRequestor.java,0.697131,0.000000,0.000000,2.659649,0.000000,0.000000,0.000000,0.000000,0.000000,0.000000,0.000000,1.767423,1.160631,0.577131,1.672439,1.317440,0.496382,0.986843,0.286725,0.260589,1.257289,YES
1.5.3,lang/java/ipc/src/main/java/org/apache/avro/ipc/SocketTransceiver.java,0.497951,0.000000,0.000000,0.531930,0.000000,0.000000,0.000000,0.000000,0.000000,0.000000,0.000000,1.490851,1.160631,0.799776,1.672439,1.743231,0.443198,0.986843,0.409606,0.312707,0.628645,NO
1.5.3,lang/java/ipc/src/main/java/org/apache/avro/ipc/Transceiver.java,0.292546,0.000000,0.000000,0.531930,0.000000,0.000000,0.000000,0.000000,0.000000,0.000000,0.000000,1.471096,1.160631,1.004408,1.672439,1.355687,0.815485,0.328948,0.081921,0.156354,0.628645,NO
1.5.3,lang/java/ipc/src/main/java/org/apache/avro/ipc/reflect/ReflectResponder.java,0.211629,0.000000,0.000000,1.595789,0.000000,0.000000,0.000000,0.000000,0.000000,0.000000,0.000000,1.820103,1.160631,0.650936,1.672439,1.710893,0.336831,0.328948,0.040961,0.052118,0.314322,NO
1.5.3,lang/java/ipc/src/main/java/org/apache/avro/ipc/RPCPlugin.java,0.062244,0.000000,0.000000,0.000000,0.000000,0.000000,0.000000,0.000000,0.000000,0.000000,0.000000,1.044386,1.160631,1.568747,1.455961,1.542057,0.975036,0.000000,0.000000,0.364825,0.314322,NO
1.5.3,lang/java/ipc/src/main/java/org/apache/avro/ipc/NettyServer.java,0.684683,0.000000,0.000000,0.531930,0.000000,0.000000,0.000000,0.000000,0.000000,0.000000,0.000000,0.504414,0.863787,0.631390,0.814189,0.818149,0.443198,0.328948,0.122882,0.104236,0.314322,NO
1.5.3,lang/java/ipc/src/main/java/org/apache/avro/ipc/stats/Histogram.java,1.027024,0.000000,0.000000,0.000000,0.000000,0.000000,0.000000,0.000000,0.000000,0.000000,0.000000,1.018046,1.160631,1.911478,1.147527,1.190692,1.240956,0.657895,0.450567,0.573296,1.885934,NO
1.5.3,lang/java/ipc/src/main/java/org/apache/avro/ipc/stats/Stopwatch.java,0.236527,0.000000,0.000000,0.000000,0.000000,0.000000,0.000000,0.000000,0.000000,0.000000,0.000000,1.012778,1.160631,2.535449,1.147527,1.283720,0.496382,0.657895,0.163843,0.208471,0.628645,NO
1.5.3,lang/java/ipc/src/main/java/org/apache/avro/ipc/stats/StatsServer.java,0.124488,0.000000,0.000000,0.000000,0.000000,0.000000,0.000000,0.000000,0.000000,0.000000,0.000000,0.449099,0.863787,1.686453,0.762464,0.852956,0.496382,0.000000,0.000000,0.052118,0.314322,NO
1.5.3,lang/java/ipc/src/main/java/org/apache/avro/ipc/stats/StatsPlugin.java,1.002126,0.000000,0.000000,0.000000,0.000000,0.000000,0.000000,0.000000,0.000000,0.000000,0.000000,1.054922,1.160631,1.320478,1.147527,0.963178,0.726845,0.328948,0.327685,0.052118,0.314322,NO
1.5.3,lang/java/ipc/src/main/java/org/apache/avro/ipc/stats/StatsServlet.java,1.207531,0.000000,0.000000,0.000000,0.000000,0.000000,0.000000,0.000000,0.000000,0.000000,0.000000,1.054922,1.160631,1.320478,1.147527,0.914524,0.744573,0.328948,0.286725,1.094475,1.571612,NO
1.5.3,lang/java/ipc/src/main/java/org/apache/avro/ipc/DatagramServer.java,0.280097,0.000000,0.000000,0.000000,0.000000,0.000000,0.000000,0.000000,0.000000,0.000000,0.000000,1.498753,1.160631,1.023292,1.672439,1.797534,0.336831,0.657895,0.122882,0.052118,0.314322,NO
1.5.3,lang/java/ipc/src/main/java/org/apache/avro/ipc/DatagramTransceiver.java,0.336117,0.000000,0.000000,0.000000,0.000000,0.000000,0.000000,0.000000,0.000000,0.000000,0.000000,1.025948,1.160631,1.926315,1.352511,1.503130,0.390015,0.657895,0.122882,0.104236,0.314322,NO
1.5.3,lang/java/ipc/src/main/java/org/apache/avro/ipc/NettyTransceiver.java,1.705482,0.000000,0.000000,0.531930,0.000000,0.000000,0.000000,0.000000,0.000000,0.000000,0.000000,0.482024,0.863787,0.603364,0.814189,0.429299,1.595514,0.657895,0.573449,0.625414,1.571612,YES
1.5.3,lang/java/ipc/src/main/java/org/apache/avro/ipc/Responder.java,1.132839,0.000000,0.000000,3.191579,0.000000,0.000000,0.000000,0.000000,0.000000,0.000000,0.000000,1.999216,1.160631,0.441614,1.672439,1.548030,0.762301,0.657895,0.819213,0.573296,0.942967,NO
1.5.3,lang/java/ipc/src/main/java/org/apache/avro/ipc/generic/GenericResponder.java,0.248976,0.000000,0.000000,1.063860,0.000000,0.000000,0.000000,0.000000,0.000000,0.000000,0.000000,1.573823,1.160631,0.985001,1.672439,1.670370,0.319103,0.328948,0.040961,0.052118,0.314322,NO
1.5.3,lang/java/ipc/src/main/java/org/apache/avro/ipc/generic/GenericRequestor.java,0.392136,0.000000,0.000000,1.595789,0.000000,0.000000,0.000000,0.000000,0.000000,0.000000,0.000000,1.710792,1.160631,0.755806,1.672439,1.575698,0.336831,0.657895,0.286725,0.469061,0.628645,YES
1.5.3,lang/java/ipc/src/main/java/org/apache/avro/ipc/HttpTransceiver.java,0.491727,0.000000,0.000000,0.000000,0.000000,0.000000,0.000000,0.000000,0.000000,0.000000,0.000000,1.093115,1.160631,0.912190,1.339101,1.387647,0.390015,0.986843,0.245764,0.052118,0.314322,NO
1.5.3,lang/java/ipc/src/main/java/org/apache/avro/ipc/SocketServer.java,0.628663,0.000000,0.000000,0.531930,0.000000,0.000000,0.000000,0.000000,0.000000,0.000000,0.000000,1.654160,1.160631,0.690187,1.672439,1.671708,0.407743,0.657895,0.327685,0.469061,1.885934,YES
1.5.3,lang/java/ipc/src/main/java/org/apache/avro/ipc/trace/InMemorySpanStorage.java,0.280097,0.000000,0.000000,0.000000,0.000000,0.000000,0.000000,0.000000,0.000000,0.000000,0.000000,0.462269,0.863787,1.157273,0.747138,0.833239,0.425470,0.657895,0.163843,0.052118,0.314322,NO
1.5.3,lang/java/ipc/src/main/java/org/apache/avro/ipc/trace/FileSpanStorage.java,1.319570,0.000000,0.000000,0.000000,0.000000,0.000000,0.000000,0.000000,0.000000,0.000000,0.000000,0.439880,0.863787,1.651834,0.731812,0.818666,1.861433,0.986843,0.942095,0.938121,2.200256,NO
1.5.3,lang/java/ipc/src/main/java/org/apache/avro/ipc/trace/Trace.java,0.784273,0.000000,0.000000,0.000000,0.000000,0.000000,0.000000,0.000000,0.000000,0.000000,0.000000,0.517584,0.863787,0.971812,0.747138,0.835032,1.772794,1.644738,0.819213,0.469061,0.942967,NO
1.5.3,lang/java/ipc/src/main/java/org/apache/avro/ipc/trace/TraceCollection.java,1.232429,0.000000,0.000000,0.000000,0.000000,0.000000,0.000000,0.000000,0.000000,0.000000,0.000000,0.470171,0.863787,1.177055,0.712654,0.795429,1.365051,0.986843,0.573449,0.416943,1.571612,NO
1.5.3,lang/java/ipc/src/main/java/org/apache/avro/ipc/trace/TraceClientServlet.java,1.188858,0.000000,0.000000,0.000000,0.000000,0.000000,0.000000,0.000000,0.000000,0.000000,0.000000,0.576849,0.863787,1.083089,0.747138,0.797990,0.726845,0.986843,0.819213,0.573296,1.885934,NO
1.5.3,lang/java/ipc/src/main/java/org/apache/avro/ipc/trace/TracePlugin.java,1.668136,0.000000,0.000000,0.000000,0.000000,0.000000,0.000000,0.000000,0.000000,0.000000,0.000000,0.651918,0.863787,0.612019,0.747138,0.821032,1.365051,0.986843,1.105937,0.573296,2.200256,NO
1.5.3,lang/java/ipc/src/main/java/org/apache/avro/ipc/trace/TracePluginConfiguration.java,0.273873,0.000000,0.000000,0.000000,0.000000,0.000000,0.000000,0.000000,0.000000,0.000000,0.000000,0.505731,0.863787,0.759646,0.747138,0.819301,0.638206,0.328948,0.040961,0.156354,0.942967,NO
1.5.3,lang/java/ipc/src/main/java/org/apache/avro/ipc/trace/Util.java,0.865190,0.000000,0.000000,0.000000,0.000000,0.000000,0.000000,0.000000,0.000000,0.000000,0.000000,0.507048,0.863787,0.761624,0.747138,0.824444,1.081404,1.315791,0.983055,0.521178,1.885934,NO
1.5.3,lang/java/ipc/src/main/java/org/apache/avro/ipc/trace/SpanAggregator.java,0.666010,0.000000,0.000000,0.531930,0.000000,0.000000,0.000000,0.000000,0.000000,0.000000,0.000000,0.489926,0.863787,0.919883,0.747138,0.825004,0.975036,1.973686,0.614410,0.312707,0.942967,NO
1.5.3,lang/java/ipc/src/main/java/org/apache/avro/ipc/SaslSocketServer.java,0.423258,0.000000,0.000000,0.000000,0.000000,0.000000,0.000000,0.000000,0.000000,0.000000,0.000000,0.435929,0.863787,1.636997,0.664761,0.743658,0.390015,0.328948,0.040961,0.781768,1.885934,NO
1.5.3,lang/java/ipc/src/main/java/org/apache/avro/ipc/Ipc.java,0.161834,0.000000,0.000000,0.000000,0.000000,0.000000,0.000000,0.000000,0.000000,0.000000,0.000000,0.433295,0.863787,1.627106,0.505755,0.565780,0.390015,0.657895,0.163843,0.364825,0.628645,NO
1.5.3,lang/java/ipc/src/main/java/org/apache/avro/ipc/Requestor.java,2.340370,0.000000,0.000000,3.191579,0.000000,0.000000,0.000000,0.000000,0.000000,0.000000,0.000000,2.026873,1.160631,0.447723,1.672439,1.007232,2.304632,0.657895,1.556504,0.886003,1.571612,YES
1.5.3,lang/java/tools/src/main/java/org/apache/avro/tool/TetherTool.java,0.410810,0.000000,0.000000,0.531930,0.000000,0.000000,0.000000,0.000000,0.000000,0.000000,0.000000,0.023706,0.032091,0.089021,0.436788,0.481725,0.301375,0.328948,0.122882,0.104236,0.314322,YES
1.5.3,lang/java/tools/src/main/java/org/apache/avro/tool/DataFileWriteTool.java,0.666010,0.000000,0.000000,0.000000,0.000000,0.000000,0.000000,0.000000,0.000000,0.000000,0.000000,1.106286,1.160631,1.186946,1.164769,1.096534,0.319103,0.657895,0.327685,0.156354,0.942967,NO
1.5.3,lang/java/tools/src/main/java/org/apache/avro/tool/JsonToBinaryFragmentTool.java,0.348566,0.000000,0.000000,0.531930,0.000000,0.000000,0.000000,0.000000,0.000000,0.000000,0.000000,1.127358,1.160631,1.411147,1.164769,1.168558,0.319103,0.328948,0.122882,0.104236,0.628645,NO
1.5.3,lang/java/tools/src/main/java/org/apache/avro/tool/RpcReceiveTool.java,0.865190,0.000000,0.000000,0.000000,0.000000,0.000000,0.000000,0.000000,0.000000,0.000000,0.000000,1.220865,1.160631,1.146145,1.162853,1.215992,0.407743,0.657895,0.368646,0.104236,0.628645,NO
1.5.3,lang/java/tools/src/main/java/org/apache/avro/tool/BinaryFragmentToJsonTool.java,0.385912,0.000000,0.000000,0.000000,0.000000,0.000000,0.000000,0.000000,0.000000,0.000000,0.000000,1.155015,1.160631,1.445767,1.164769,1.240136,0.319103,0.328948,0.122882,0.104236,0.628645,YES
1.5.3,lang/java/tools/src/main/java/org/apache/avro/tool/Main.java,0.392136,0.000000,0.000000,0.531930,0.000000,0.000000,0.000000,0.000000,0.000000,0.000000,0.000000,1.295934,1.160631,0.572527,1.287376,1.302767,0.425470,0.657895,0.245764,0.052118,0.314322,NO
1.5.3,lang/java/tools/src/main/java/org/apache/avro/tool/FromTextTool.java,0.572644,0.000000,0.000000,0.000000,0.000000,0.000000,0.000000,0.000000,0.000000,0.000000,0.000000,1.078628,1.160631,1.157273,1.164769,0.941870,0.443198,1.644738,0.368646,0.052118,0.314322,YES
1.5.3,lang/java/tools/src/main/java/org/apache/avro/tool/RecodecTool.java,0.535297,0.000000,0.000000,0.000000,0.000000,0.000000,0.000000,0.000000,0.000000,0.000000,0.000000,0.431978,0.863787,1.622160,0.538322,0.602213,0.319103,0.657895,0.327685,0.312707,0.942967,NO
1.5.3,lang/java/tools/src/main/java/org/apache/avro/tool/InduceSchemaTool.java,0.304995,0.000000,0.000000,0.000000,0.000000,0.000000,0.000000,0.000000,0.000000,0.000000,0.000000,1.128675,1.160631,1.059597,1.241398,1.340206,0.354559,0.986843,0.204803,0.052118,0.314322,NO
1.5.3,lang/java/tools/src/main/java/org/apache/avro/tool/Util.java,0.485502,0.000000,0.000000,0.000000,0.000000,0.000000,0.000000,0.000000,0.000000,0.000000,0.000000,1.518509,1.160631,0.877275,1.672439,1.389842,0.620478,0.986843,0.245764,0.312707,0.942967,YES
1.5.3,lang/java/tools/src/main/java/org/apache/avro/tool/IdlTool.java,0.292546,0.000000,0.000000,0.000000,0.000000,0.000000,0.000000,0.000000,0.000000,0.000000,0.000000,1.172136,1.160631,1.257598,1.162853,1.186539,0.372287,0.328948,0.122882,0.208471,0.942967,NO
1.5.3,lang/java/compiler/src/main/java/org/apache/avro/compiler/specific/SpecificCompiler.java,2.172311,0.262000,0.487176,3.191579,1.265598,0.296574,0.439459,0.761374,0.208048,0.354790,0.588822,1.986046,1.160631,0.338999,1.672439,1.409253,1.099132,1.315791,2.990127,0.416943,0.628645,NO
1.5.3,lang/java/compiler/src/main/java/org/apache/avro/compiler/specific/ProtocolTask.java,0.292546,0.000000,0.000000,0.000000,0.000000,0.000000,0.000000,0.000000,0.000000,0.000000,0.000000,1.509290,1.160631,1.259482,1.672439,1.817779,0.390015,0.657895,0.245764,0.364825,1.571612,NO
1.5.4,lang/java/ipc/src/main/java/org/apache/avro/ipc/stats/Stopwatch.java,0.236527,0.000000,0.000000,0.000000,0.000000,0.000000,0.000000,0.000000,0.000000,0.000000,0.000000,1.012778,1.160631,2.535449,1.170516,1.309437,0.496382,0.657895,0.163843,0.208471,0.628645,NO
1.5.4,lang/java/ipc/src/main/java/org/apache/avro/ipc/stats/StatsServlet.java,1.207531,0.000000,0.000000,0.000000,0.000000,0.000000,0.000000,0.000000,0.000000,0.000000,0.000000,1.054922,1.160631,1.320478,1.170516,0.940241,0.744573,0.328948,0.286725,1.094475,1.571612,NO
1.5.4,lang/java/ipc/src/main/java/org/apache/avro/ipc/stats/StatsPlugin.java,1.002126,0.000000,0.000000,0.000000,0.000000,0.000000,0.000000,0.000000,0.000000,0.000000,0.000000,1.054922,1.160631,1.320478,1.170516,0.988895,0.726845,0.328948,0.327685,0.052118,0.314322,NO
1.5.4,lang/java/ipc/src/main/java/org/apache/avro/ipc/stats/StatsServer.java,0.124488,0.000000,0.000000,0.000000,0.000000,0.000000,0.000000,0.000000,0.000000,0.000000,0.000000,0.449099,0.863787,1.686453,0.785453,0.878673,0.496382,0.000000,0.000000,0.052118,0.314322,NO
1.5.4,lang/java/ipc/src/main/java/org/apache/avro/ipc/stats/Histogram.java,1.027024,0.000000,0.000000,0.000000,0.000000,0.000000,0.000000,0.000000,0.000000,0.000000,0.000000,1.018046,1.160631,1.911478,1.170516,1.216410,1.240956,0.657895,0.450567,0.573296,1.885934,NO
1.5.4,lang/java/ipc/src/main/java/org/apache/avro/ipc/SaslSocketTransceiver.java,2.016702,0.000000,0.000000,0.531930,0.000000,0.000000,0.000000,0.000000,0.000000,0.000000,0.000000,0.536022,0.863787,1.006432,0.687750,0.747273,0.638206,1.315791,1.679386,2.553774,3.457546,NO
1.5.4,lang/java/ipc/src/main/java/org/apache/avro/ipc/RPCContext.java,0.591317,0.000000,0.000000,1.595789,0.000000,0.000000,0.000000,0.000000,0.000000,0.000000,0.000000,1.120773,1.160631,0.841743,1.478950,1.267123,1.613242,0.328948,0.163843,0.156354,0.628645,NO
1.5.4,lang/java/ipc/src/main/java/org/apache/avro/ipc/HttpTransceiver.java,0.491727,0.000000,0.000000,0.000000,0.000000,0.000000,0.000000,0.000000,0.000000,0.000000,0.000000,1.093115,1.160631,0.912190,1.362090,1.413365,0.390015,0.986843,0.245764,0.052118,0.314322,NO
1.5.4,lang/java/ipc/src/main/java/org/apache/avro/ipc/generic/GenericResponder.java,0.248976,0.000000,0.000000,1.063860,0.000000,0.000000,0.000000,0.000000,0.000000,0.000000,0.000000,1.573823,1.160631,0.985001,1.695428,1.696088,0.319103,0.328948,0.040961,0.052118,0.314322,NO
1.5.4,lang/java/ipc/src/main/java/org/apache/avro/ipc/generic/GenericRequestor.java,0.392136,0.000000,0.000000,1.595789,0.000000,0.000000,0.000000,0.000000,0.000000,0.000000,0.000000,1.710792,1.160631,0.755806,1.695428,1.601415,0.336831,0.657895,0.286725,0.469061,0.628645,YES
1.5.4,lang/java/ipc/src/main/java/org/apache/avro/ipc/Responder.java,1.132839,0.000000,0.000000,3.191579,0.000000,0.000000,0.000000,0.000000,0.000000,0.000000,0.000000,1.999216,1.160631,0.441614,1.695428,1.573747,0.762301,0.657895,0.819213,0.573296,0.942967,NO
1.5.4,lang/java/ipc/src/main/java/org/apache/avro/ipc/NettyTransceiver.java,1.705482,0.000000,0.000000,0.531930,0.000000,0.000000,0.000000,0.000000,0.000000,0.000000,0.000000,0.482024,0.863787,0.603364,0.837177,0.455016,1.595514,0.657895,0.573449,0.625414,1.571612,YES
1.5.4,lang/java/ipc/src/main/java/org/apache/avro/ipc/reflect/ReflectResponder.java,0.211629,0.000000,0.000000,1.595789,0.000000,0.000000,0.000000,0.000000,0.000000,0.000000,0.000000,1.820103,1.160631,0.650936,1.695428,1.736610,0.336831,0.328948,0.040961,0.052118,0.314322,NO
1.5.4,lang/java/ipc/src/main/java/org/apache/avro/ipc/SocketServer.java,0.628663,0.000000,0.000000,0.531930,0.000000,0.000000,0.000000,0.000000,0.000000,0.000000,0.000000,1.654160,1.160631,0.690187,1.695428,1.697426,0.407743,0.657895,0.327685,0.469061,1.885934,YES
1.5.4,lang/java/ipc/src/main/java/org/apache/avro/ipc/SaslSocketServer.java,0.423258,0.000000,0.000000,0.000000,0.000000,0.000000,0.000000,0.000000,0.000000,0.000000,0.000000,0.435929,0.863787,1.636997,0.687750,0.769375,0.390015,0.328948,0.040961,0.781768,1.885934,NO
1.5.4,lang/java/ipc/src/main/java/org/apache/avro/ipc/trace/TraceCollection.java,1.232429,0.000000,0.000000,0.000000,0.000000,0.000000,0.000000,0.000000,0.000000,0.000000,0.000000,0.470171,0.863787,1.177055,0.735643,0.821146,1.365051,0.986843,0.573449,0.416943,1.571612,NO
1.5.4,lang/java/ipc/src/main/java/org/apache/avro/ipc/trace/InMemorySpanStorage.java,0.280097,0.000000,0.000000,0.000000,0.000000,0.000000,0.000000,0.000000,0.000000,0.000000,0.000000,0.462269,0.863787,1.157273,0.770127,0.858957,0.425470,0.657895,0.163843,0.052118,0.314322,NO
1.5.4,lang/java/ipc/src/main/java/org/apache/avro/ipc/trace/TracePluginConfiguration.java,0.273873,0.000000,0.000000,0.000000,0.000000,0.000000,0.000000,0.000000,0.000000,0.000000,0.000000,0.505731,0.863787,0.759646,0.770127,0.845018,0.638206,0.328948,0.040961,0.156354,0.942967,NO
1.5.4,lang/java/ipc/src/main/java/org/apache/avro/ipc/trace/TracePlugin.java,1.668136,0.000000,0.000000,0.000000,0.000000,0.000000,0.000000,0.000000,0.000000,0.000000,0.000000,0.651918,0.863787,0.612019,0.770127,0.846749,1.365051,0.986843,1.105937,0.573296,2.200256,NO
1.5.4,lang/java/ipc/src/main/java/org/apache/avro/ipc/trace/Util.java,0.865190,0.000000,0.000000,0.000000,0.000000,0.000000,0.000000,0.000000,0.000000,0.000000,0.000000,0.507048,0.863787,0.761624,0.770127,0.850161,1.081404,1.315791,0.983055,0.521178,1.885934,NO
1.5.4,lang/java/ipc/src/main/java/org/apache/avro/ipc/trace/SpanAggregator.java,0.666010,0.000000,0.000000,0.531930,0.000000,0.000000,0.000000,0.000000,0.000000,0.000000,0.000000,0.489926,0.863787,0.919883,0.770127,0.850722,0.975036,1.973686,0.614410,0.312707,0.942967,NO
1.5.4,lang/java/ipc/src/main/java/org/apache/avro/ipc/trace/FileSpanStorage.java,1.319570,0.000000,0.000000,0.000000,0.000000,0.000000,0.000000,0.000000,0.000000,0.000000,0.000000,0.439880,0.863787,1.651834,0.754801,0.844383,1.861433,0.986843,0.942095,0.938121,2.200256,NO
1.5.4,lang/java/ipc/src/main/java/org/apache/avro/ipc/trace/Trace.java,0.784273,0.000000,0.000000,0.000000,0.000000,0.000000,0.000000,0.000000,0.000000,0.000000,0.000000,0.517584,0.863787,0.971812,0.770127,0.860749,1.772794,1.644738,0.819213,0.469061,0.942967,NO
1.5.4,lang/java/ipc/src/main/java/org/apache/avro/ipc/trace/TraceClientServlet.java,1.188858,0.000000,0.000000,0.000000,0.000000,0.000000,0.000000,0.000000,0.000000,0.000000,0.000000,0.576849,0.863787,1.083089,0.770127,0.823707,0.726845,0.986843,0.819213,0.573296,1.885934,NO
1.5.4,lang/java/ipc/src/main/java/org/apache/avro/ipc/DatagramTransceiver.java,0.336117,0.000000,0.000000,0.000000,0.000000,0.000000,0.000000,0.000000,0.000000,0.000000,0.000000,1.025948,1.160631,1.926315,1.375500,1.528847,0.390015,0.657895,0.122882,0.104236,0.314322,NO
1.5.4,lang/java/ipc/src/main/java/org/apache/avro/ipc/NettyServer.java,0.684683,0.000000,0.000000,0.531930,0.000000,0.000000,0.000000,0.000000,0.000000,0.000000,0.000000,0.504414,0.863787,0.631390,0.837177,0.843866,0.443198,0.328948,0.122882,0.104236,0.314322,YES
1.5.4,lang/java/ipc/src/main/java/org/apache/avro/ipc/specific/SpecificRequestor.java,0.697131,0.000000,0.000000,2.659649,0.000000,0.000000,0.000000,0.000000,0.000000,0.000000,0.000000,1.767423,1.160631,0.577131,1.695428,1.343157,0.496382,0.986843,0.286725,0.260589,1.257289,YES
1.5.4,lang/java/ipc/src/main/java/org/apache/avro/ipc/specific/SpecificResponder.java,0.423258,0.000000,0.000000,2.127719,0.000000,0.000000,0.000000,0.000000,0.000000,0.000000,0.000000,1.726596,1.160631,0.682494,1.695428,1.496892,0.319103,0.328948,0.163843,0.104236,0.628645,YES
1.5.4,lang/java/ipc/src/main/java/org/apache/avro/ipc/NettyTransportCodec.java,0.690907,0.000000,0.000000,0.000000,0.000000,0.000000,0.000000,0.000000,0.000000,0.000000,0.000000,0.445148,0.863787,1.114411,0.837177,0.924732,0.815485,0.657895,0.286725,0.312707,0.942967,NO
1.5.4,lang/java/ipc/src/main/java/org/apache/avro/ipc/RPCPlugin.java,0.062244,0.000000,0.000000,0.000000,0.000000,0.000000,0.000000,0.000000,0.000000,0.000000,0.000000,1.044386,1.160631,1.568747,1.478950,1.567775,0.975036,0.000000,0.000000,0.364825,0.314322,NO
1.5.4,lang/java/ipc/src/main/java/org/apache/avro/ipc/DatagramServer.java,0.280097,0.000000,0.000000,0.000000,0.000000,0.000000,0.000000,0.000000,0.000000,0.000000,0.000000,1.498753,1.160631,1.023292,1.695428,1.823251,0.336831,0.657895,0.122882,0.052118,0.314322,NO
1.5.4,lang/java/ipc/src/main/java/org/apache/avro/ipc/Ipc.java,0.161834,0.000000,0.000000,0.000000,0.000000,0.000000,0.000000,0.000000,0.000000,0.000000,0.000000,0.433295,0.863787,1.627106,0.528744,0.591497,0.390015,0.657895,0.163843,0.364825,0.628645,NO
1.5.4,lang/java/ipc/src/main/java/org/apache/avro/ipc/Requestor.java,2.402614,0.081875,0.487176,3.723509,1.265598,0.114067,0.169023,0.292836,0.104024,0.177395,0.294411,2.030824,1.160631,0.435779,1.695428,1.024728,2.304632,1.644738,1.679386,0.886003,1.571612,YES
1.5.4,lang/java/ipc/src/main/java/org/apache/avro/ipc/Transceiver.java,0.292546,0.000000,0.000000,0.531930,0.000000,0.000000,0.000000,0.000000,0.000000,0.000000,0.000000,1.471096,1.160631,1.004408,1.695428,1.381404,0.815485,0.328948,0.081921,0.156354,0.628645,NO
1.5.4,lang/java/ipc/src/main/java/org/apache/avro/ipc/SocketTransceiver.java,0.497951,0.000000,0.000000,0.531930,0.000000,0.000000,0.000000,0.000000,0.000000,0.000000,0.000000,1.490851,1.160631,0.799776,1.695428,1.768948,0.443198,0.986843,0.409606,0.312707,0.628645,NO
1.5.4,lang/java/avro/src/main/java/org/apache/avro/generic/GenericDatumReader.java,1.705482,0.000000,0.000000,3.191579,0.000000,0.000000,0.000000,0.000000,0.000000,0.000000,0.000000,1.982095,1.160631,0.338325,1.695428,1.649040,1.489147,1.315791,2.211875,0.521178,1.257289,NO
1.5.4,lang/java/avro/src/main/java/org/apache/avro/generic/GenericEnumSymbol.java,0.024898,0.000000,0.000000,0.000000,0.000000,0.000000,0.000000,0.000000,0.000000,0.000000,0.000000,1.463194,1.160631,1.221016,1.695428,1.777349,0.336831,0.000000,0.000000,0.052118,0.314322,NO
1.5.4,lang/java/avro/src/main/java/org/apache/avro/generic/GenericData.java,3.435862,0.000000,0.000000,4.787368,0.000000,0.000000,0.000000,0.000000,0.000000,0.000000,0.000000,1.913611,1.160631,0.359299,1.695428,1.538882,1.294139,3.947372,5.734490,4.325781,3.457546,YES
1.5.4,lang/java/avro/src/main/java/org/apache/avro/reflect/ReflectDatumWriter.java,0.473053,0.000000,0.000000,3.723509,0.000000,0.000000,0.000000,0.000000,0.000000,0.000000,0.000000,1.854345,1.160631,0.449253,1.695428,1.640655,0.425470,0.657895,0.286725,0.573296,1.257289,NO
1.5.4,lang/java/avro/src/main/java/org/apache/avro/reflect/ReflectDatumReader.java,0.628663,0.000000,0.000000,2.127719,0.000000,0.000000,0.000000,0.000000,0.000000,0.000000,0.000000,1.764789,1.160631,0.490898,1.695428,1.661880,0.443198,0.657895,0.450567,0.521178,0.942967,NO
1.5.4,lang/java/avro/src/main/java/org/apache/avro/reflect/ReflectData.java,2.502204,0.000000,0.000000,5.851228,0.000000,0.000000,0.000000,0.000000,0.000000,0.000000,0.000000,1.991314,1.160631,0.364769,1.695428,1.571665,1.223228,3.947372,3.604537,2.918599,3.771868,YES
1.5.4,lang/java/avro/src/main/java/org/apache/avro/Protocol.java,1.991804,0.000000,0.000000,1.063860,0.000000,0.000000,0.000000,0.000000,0.000000,0.000000,0.000000,1.708158,1.160631,0.534538,1.695428,1.768605,1.258683,0.986843,1.720347,1.824124,1.257289,YES
1.5.4,lang/java/avro/src/main/java/org/apache/avro/Schema.java,6.989988,0.000000,0.000000,6.383158,0.000000,0.000000,0.000000,0.000000,0.000000,0.000000,0.000000,1.966291,1.160631,0.268502,1.695428,1.562459,3.917874,2.960529,7.413877,11.778632,6.286447,YES
1.5.4,lang/java/avro/src/main/java/org/apache/avro/file/DataFileReader12.java,1.045697,0.000000,0.000000,0.000000,0.000000,0.000000,0.000000,0.000000,0.000000,0.000000,0.000000,0.484658,0.863787,1.213323,0.528744,0.585657,0.709117,0.986843,0.778252,0.521178,1.571612,NO
1.5.4,lang/java/avro/src/main/java/org/apache/avro/file/DataFileConstants.java,0.099590,0.000000,0.000000,0.531930,0.000000,0.000000,0.000000,0.000000,0.000000,0.000000,0.000000,1.431586,1.160631,0.895980,1.695428,1.711967,0.372287,0.000000,0.000000,0.052118,0.314322,NO
1.5.4,lang/java/avro/src/main/java/org/apache/avro/file/DataFileWriter.java,1.711707,0.000000,0.000000,3.191579,0.000000,0.000000,0.000000,0.000000,0.000000,0.000000,0.000000,1.705523,1.160631,0.474412,1.695428,1.513866,1.666426,0.657895,0.778252,0.364825,1.257289,NO
1.5.4,lang/java/avro/src/main/java/org/apache/avro/file/CodecFactory.java,0.248976,0.000000,0.000000,0.000000,0.000000,0.000000,0.000000,0.000000,0.000000,0.000000,0.000000,0.472805,0.863787,0.887737,1.143695,1.206202,0.514110,0.328948,0.040961,0.156354,0.314322,NO
1.5.4,lang/java/avro/src/main/java/org/apache/avro/file/DataFileStream.java,1.624565,0.000000,0.000000,1.063860,0.000000,0.000000,0.000000,0.000000,0.000000,0.000000,0.000000,1.276179,1.160631,0.599037,1.185842,1.095400,1.258683,0.986843,1.105937,0.521178,0.942967,NO
1.5.4,lang/java/avro/src/main/java/org/apache/avro/file/SnappyCodec.java,0.311219,0.000000,0.000000,0.531930,0.000000,0.000000,0.000000,0.000000,0.000000,0.000000,0.000000,0.042144,0.040114,0.105506,0.302687,0.255166,0.319103,0.328948,0.122882,0.260589,0.942967,NO
1.5.4,lang/java/avro/src/main/java/org/apache/avro/file/DeflateCodec.java,0.603766,0.000000,0.000000,0.531930,0.000000,0.000000,0.000000,0.000000,0.000000,0.000000,0.000000,0.520218,0.863787,0.558147,1.143695,1.123303,0.549566,0.328948,0.245764,0.260589,0.942967,NO
1.5.4,lang/java/avro/src/main/java/org/apache/avro/file/DataFileReader.java,1.051922,0.000000,0.000000,1.063860,0.000000,0.000000,0.000000,0.000000,0.000000,0.000000,0.000000,1.656794,1.160631,0.592531,1.695428,1.591573,0.886397,0.986843,0.573449,0.781768,2.514579,NO
1.5.4,lang/java/avro/src/main/java/org/apache/avro/file/NullCodec.java,0.217854,0.000000,0.000000,0.000000,0.000000,0.000000,0.000000,0.000000,0.000000,0.000000,0.000000,1.502704,1.160631,0.806134,1.695428,1.562700,0.336831,0.328948,0.040961,0.156354,0.942967,NO
1.5.4,lang/java/avro/src/main/java/org/apache/avro/specific/SpecificDatumWriter.java,0.186732,0.000000,0.000000,1.063860,0.000000,0.000000,0.000000,0.000000,0.000000,0.000000,0.000000,1.586993,1.160631,0.794595,1.695428,1.738027,0.336831,0.328948,0.040961,0.104236,0.314322,NO
1.5.4,lang/java/avro/src/main/java/org/apache/avro/specific/SpecificData.java,0.995902,0.000000,0.000000,3.723509,0.000000,0.000000,0.000000,0.000000,0.000000,0.000000,0.000000,1.347298,1.160631,0.439944,1.415730,1.340983,0.496382,3.947372,1.843229,1.250828,2.514579,NO
1.5.4,lang/java/avro/src/main/java/org/apache/avro/specific/SpecificRecordBase.java,0.168058,0.000000,0.000000,1.595789,0.000000,0.000000,0.000000,0.000000,0.000000,0.000000,0.000000,1.155015,1.160631,1.084325,1.591978,1.614203,0.372287,0.328948,0.122882,0.208471,0.628645,NO
1.5.4,lang/java/avro/src/main/java/org/apache/avro/specific/SpecificExceptionBase.java,0.112039,0.000000,0.000000,1.063860,0.000000,0.000000,0.000000,0.000000,0.000000,0.000000,0.000000,1.536947,1.160631,1.049368,1.695428,1.804657,0.372287,0.328948,0.122882,0.312707,0.942967,NO
1.5.4,lang/java/avro/src/main/java/org/apache/avro/specific/SpecificDatumReader.java,0.404585,0.000000,0.000000,1.595789,0.000000,0.000000,0.000000,0.000000,0.000000,0.000000,0.000000,1.689719,1.160631,0.576838,1.695428,1.748983,0.531838,0.657895,0.368646,0.208471,0.628645,NO
1.5.4,lang/java/avro/src/main/java/org/apache/avro/io/DirectBinaryEncoder.java,0.466829,0.000000,0.000000,0.000000,0.000000,0.000000,0.000000,0.000000,0.000000,0.000000,0.000000,0.059265,0.120342,0.445105,0.379316,0.424335,0.797757,0.657895,0.245764,0.052118,0.314322,NO
1.5.4,lang/java/avro/src/main/java/org/apache/avro/io/JsonDecoder.java,2.334146,0.000000,0.000000,1.063860,0.000000,0.000000,0.000000,0.000000,0.000000,0.000000,0.000000,1.299885,1.160631,0.697331,1.496191,1.438126,0.833213,1.644738,1.720347,0.156354,0.628645,YES
1.5.4,lang/java/avro/src/main/java/org/apache/avro/io/EncoderFactory.java,0.522849,0.000000,0.000000,0.000000,0.000000,0.000000,0.000000,0.000000,0.000000,0.000000,0.000000,0.121165,0.120342,0.303331,0.379316,0.424149,4.148337,0.328948,0.286725,0.260589,0.628645,NO
1.5.4,lang/java/avro/src/main/java/org/apache/avro/io/DecoderFactory.java,0.585092,0.000000,0.000000,0.000000,0.000000,0.000000,0.000000,0.000000,0.000000,0.000000,0.000000,0.578166,0.863787,0.868449,1.090055,0.784477,3.545587,0.328948,0.245764,0.208471,0.942967,NO
1.5.4,lang/java/avro/src/main/java/org/apache/avro/io/BinaryDecoder.java,4.027179,0.000000,0.000000,0.000000,0.000000,0.000000,0.000000,0.000000,0.000000,0.000000,0.000000,1.235352,1.160631,0.843451,1.551748,1.262467,4.378800,1.973686,2.580521,2.605892,2.828901,NO
1.5.4,lang/java/avro/src/main/java/org/apache/avro/io/JsonEncoder.java,1.288448,0.000000,0.000000,1.595789,0.000000,0.000000,0.000000,0.000000,0.000000,0.000000,0.000000,1.320958,1.160631,0.708635,1.496191,1.365944,0.992764,0.986843,0.655370,0.104236,0.314322,YES
1.5.4,lang/java/avro/src/main/java/org/apache/avro/io/BlockingBinaryEncoder.java,2.259453,0.000000,0.000000,1.063860,0.000000,0.000000,0.000000,0.000000,0.000000,0.000000,0.000000,1.299885,1.160631,0.887512,1.586231,1.407314,2.375543,1.315791,1.433623,0.833885,1.257289,NO
1.5.4,lang/java/avro/src/main/java/org/apache/avro/io/BufferedBinaryEncoder.java,0.784273,0.000000,0.000000,0.000000,0.000000,0.000000,0.000000,0.000000,0.000000,0.000000,0.000000,0.109312,0.120342,0.410486,0.379316,0.424335,1.063676,0.986843,0.450567,0.208471,1.257289,NO
1.5.4,lang/java/avro/src/main/java/org/apache/avro/io/Encoder.java,0.248976,0.000000,0.000000,0.000000,0.000000,0.000000,0.000000,0.000000,0.000000,0.000000,0.000000,1.535630,1.160631,0.887166,1.695428,1.759871,3.900146,0.328948,0.040961,0.104236,0.314322,NO
1.5.4,lang/java/avro/src/main/java/org/apache/avro/io/ParsingEncoder.java,0.224078,0.000000,0.000000,0.000000,0.000000,0.000000,0.000000,0.000000,0.000000,0.000000,0.000000,1.115505,1.160631,1.675573,1.496191,1.650681,0.425470,0.328948,0.122882,0.052118,0.314322,NO
1.5.4,lang/java/avro/src/main/java/org/apache/avro/io/BinaryData.java,2.153638,0.000000,0.000000,0.000000,0.000000,0.000000,0.000000,0.000000,0.000000,0.000000,0.000000,1.265643,1.160631,0.864133,1.419562,1.213590,1.205500,2.960529,3.276852,2.501656,2.200256,NO
1.5.4,lang/java/avro/src/main/java/org/apache/avro/io/BinaryEncoder.java,0.423258,0.000000,0.000000,0.531930,0.000000,0.000000,0.000000,0.000000,0.000000,0.000000,0.000000,1.619918,1.160631,0.935862,1.695428,1.508678,0.638206,0.328948,0.122882,0.208471,0.314322,NO
1.5.4,lang/java/avro/src/main/java/org/apache/avro/io/parsing/JsonGrammarGenerator.java,0.361015,0.000000,0.000000,1.063860,0.000000,0.000000,0.000000,0.000000,0.000000,0.000000,0.000000,1.201110,1.160631,1.002310,1.496191,1.598196,0.620478,1.315791,0.655370,0.208471,0.314322,YES
1.5.4,lang/java/avro/src/main/java/org/apache/avro/io/parsing/Symbol.java,2.234555,0.000000,0.000000,1.595789,0.000000,0.000000,0.000000,0.000000,0.000000,0.000000,0.000000,1.220865,1.160631,0.611277,1.496191,1.514886,2.180536,0.986843,0.655370,0.729650,1.257289,YES
1.5.4,lang/java/avro/src/main/java/org/apache/avro/io/parsing/ValidatingGrammarGenerator.java,0.510400,0.000000,0.000000,0.531930,0.000000,0.000000,0.000000,0.000000,0.000000,0.000000,0.000000,1.230084,1.160631,0.923840,1.496191,1.610629,0.762301,1.315791,0.737292,0.312707,1.571612,NO
1.5.4,lang/java/avro/src/main/java/org/apache/avro/io/parsing/ResolvingGrammarGenerator.java,2.259453,0.000000,0.000000,2.659649,0.000000,0.000000,0.000000,0.000000,0.000000,0.000000,0.000000,1.336762,1.160631,0.501979,1.496191,1.430468,1.489147,1.644738,3.768379,1.772007,2.514579,NO
1.5.4,lang/java/avro/src/main/java/org/apache/avro/io/parsing/SkipParser.java,0.273873,0.000000,0.000000,0.531930,0.000000,0.000000,0.000000,0.000000,0.000000,0.000000,0.000000,1.182672,1.160631,0.986924,1.496191,1.607097,0.762301,0.986843,0.122882,0.104236,0.628645,NO
1.5.4,lang/java/avro/src/main/java/org/apache/avro/io/parsing/Parser.java,0.609990,0.000000,0.000000,1.063860,0.000000,0.000000,0.000000,0.000000,0.000000,0.000000,0.000000,1.191891,1.160631,0.895155,1.496191,1.454658,1.400507,1.315791,0.532488,0.156354,0.314322,NO
1.5.4,lang/java/avro/src/main/java/org/apache/avro/AvroRemoteException.java,0.093366,0.000000,0.000000,0.000000,0.000000,0.000000,0.000000,0.000000,0.000000,0.000000,0.000000,1.502704,1.160631,1.410735,1.695428,1.870931,0.319103,0.328948,0.040961,0.052118,0.314322,YES
1.5.4,lang/java/avro/src/main/java/org/apache/avro/util/WeakIdentityHashMap.java,0.740702,0.000000,0.000000,0.000000,0.000000,0.000000,0.000000,0.000000,0.000000,0.000000,0.000000,0.431978,0.863787,1.622160,0.760548,0.850813,0.585022,0.328948,0.204803,1.094475,1.257289,NO
1.5.4,lang/java/avro/src/main/java/org/apache/avro/util/ByteBufferInputStream.java,0.323668,0.000000,0.000000,0.000000,0.000000,0.000000,0.000000,0.000000,0.000000,0.000000,0.000000,1.502704,1.160631,1.128588,1.695428,1.871279,0.531838,0.657895,0.286725,0.208471,0.314322,YES
1.5.4,lang/java/avro/src/main/java/org/apache/avro/util/ByteBufferOutputStream.java,0.435707,0.000000,0.000000,0.000000,0.000000,0.000000,0.000000,0.000000,0.000000,0.000000,0.000000,1.552751,1.160631,1.166175,1.695428,1.772681,0.443198,0.328948,0.245764,0.052118,0.314322,NO
1.5.4,lang/java/avro/src/main/java/org/apache/avro/util/Utf8.java,0.504175,0.000000,0.000000,0.531930,0.000000,0.000000,0.000000,0.000000,0.000000,0.000000,0.000000,1.580408,1.160631,0.913036,1.695428,1.581460,0.567294,0.657895,0.409606,0.469061,0.942967,NO
1.5.4,lang/java/compiler/src/main/java/org/apache/avro/compiler/specific/ProtocolTask.java,0.292546,0.000000,0.000000,0.000000,0.000000,0.000000,0.000000,0.000000,0.000000,0.000000,0.000000,1.509290,1.160631,1.259482,1.695428,1.843497,0.390015,0.657895,0.245764,0.364825,1.571612,NO
1.5.4,lang/java/compiler/src/main/java/org/apache/avro/compiler/specific/SpecificCompiler.java,2.172311,0.000000,0.000000,3.191579,0.000000,0.000000,0.000000,0.000000,0.000000,0.000000,0.000000,1.986046,1.160631,0.338999,1.695428,1.434970,1.099132,1.315791,2.990127,0.416943,0.628645,NO
1.5.4,lang/java/mapred/src/main/java/org/apache/avro/mapred/AvroInputFormat.java,0.186732,0.000000,0.000000,0.000000,0.000000,0.000000,0.000000,0.000000,0.000000,0.000000,0.000000,0.449099,0.863787,1.686453,1.011510,1.131560,0.319103,0.657895,0.081921,0.104236,0.314322,NO
1.5.4,lang/java/mapred/src/main/java/org/apache/avro/mapred/AvroAsTextRecordReader.java,0.410810,0.000000,0.000000,0.531930,0.000000,0.000000,0.000000,0.000000,0.000000,0.000000,0.000000,0.541290,0.863787,0.580756,1.011510,0.788185,0.319103,0.657895,0.163843,0.052118,0.314322,NO
1.5.4,lang/java/mapred/src/main/java/org/apache/avro/mapred/AvroKeyComparator.java,0.143161,0.000000,0.000000,0.531930,0.000000,0.000000,0.000000,0.000000,0.000000,0.000000,0.000000,0.567630,0.863787,0.710519,1.011510,1.035290,0.319103,0.328948,0.040961,0.052118,0.314322,NO
1.5.4,lang/java/mapred/src/main/java/org/apache/avro/mapred/HadoopMapper.java,0.354790,0.000000,0.000000,0.000000,0.000000,0.000000,0.000000,0.000000,0.000000,0.000000,0.000000,0.493877,0.863787,1.236402,0.798863,0.830764,0.372287,0.328948,0.081921,0.260589,0.628645,NO
1.5.4,lang/java/mapred/src/main/java/org/apache/avro/mapred/AvroRecordReader.java,0.336117,0.000000,0.000000,0.531930,0.000000,0.000000,0.000000,0.000000,0.000000,0.000000,0.000000,0.534705,0.863787,0.669306,1.011510,1.014862,0.336831,0.328948,0.122882,0.052118,0.314322,NO
1.5.4,lang/java/mapred/src/main/java/org/apache/avro/mapred/AvroMapper.java,0.124488,0.000000,0.000000,0.000000,0.000000,0.000000,0.000000,0.000000,0.000000,0.000000,0.000000,0.517584,0.863787,0.971812,1.011510,0.924202,0.478654,0.000000,0.000000,0.104236,0.314322,NO
1.5.4,lang/java/mapred/src/main/java/org/apache/avro/mapred/AvroTextOutputFormat.java,0.585092,0.000000,0.000000,0.000000,0.000000,0.000000,0.000000,0.000000,0.000000,0.000000,0.000000,0.007902,0.016046,0.059347,0.199237,0.222883,0.336831,0.986843,0.245764,0.156354,0.628645,NO
1.5.4,lang/java/mapred/src/main/java/org/apache/avro/mapred/HadoopReducer.java,0.192956,0.000000,0.000000,0.000000,0.000000,0.000000,0.000000,0.000000,0.000000,0.000000,0.000000,0.474122,0.863787,1.780420,0.798863,0.893675,0.336831,0.000000,0.000000,0.052118,0.314322,NO
1.5.4,lang/java/mapred/src/main/java/org/apache/avro/mapred/AvroAsTextInputFormat.java,0.180507,0.000000,0.000000,0.000000,0.000000,0.000000,0.000000,0.000000,0.000000,0.000000,0.000000,0.455684,0.863787,1.140787,1.011510,0.846401,0.460926,0.657895,0.081921,0.104236,0.314322,NO
1.5.4,lang/java/mapred/src/main/java/org/apache/avro/mapred/Pair.java,2.744955,0.000000,0.000000,0.531930,0.000000,0.000000,0.000000,0.000000,0.000000,0.000000,0.000000,0.525486,0.863787,0.986649,0.798863,0.847691,0.992764,0.657895,0.409606,0.260589,0.628645,YES
1.5.4,lang/java/mapred/src/main/java/org/apache/avro/mapred/FsInput.java,0.186732,0.000000,0.000000,0.000000,0.000000,0.000000,0.000000,0.000000,0.000000,0.000000,0.000000,0.449099,0.863787,1.686453,1.011510,1.131560,0.336831,0.000000,0.000000,0.052118,0.314322,NO
1.5.4,lang/java/mapred/src/main/java/org/apache/avro/mapred/AvroOutputFormat.java,0.485502,0.000000,0.000000,0.531930,0.000000,0.000000,0.000000,0.000000,0.000000,0.000000,0.000000,0.595287,0.863787,0.496759,1.011510,0.818575,0.443198,0.657895,0.245764,0.104236,0.314322,NO
1.5.4,lang/java/mapred/src/main/java/org/apache/avro/mapred/SequenceFileReader.java,1.201307,0.000000,0.000000,0.000000,0.000000,0.000000,0.000000,0.000000,0.000000,0.000000,0.000000,0.438563,0.863787,1.646888,0.687750,0.769375,0.390015,0.328948,0.368646,1.146592,1.885934,NO
1.5.4,lang/java/mapred/src/main/java/org/apache/avro/mapred/AvroSerialization.java,0.566419,0.000000,0.000000,0.531930,0.000000,0.000000,0.000000,0.000000,0.000000,0.000000,0.000000,0.670356,0.863787,0.719233,1.011510,1.006915,0.514110,0.657895,0.286725,0.052118,0.314322,NO
1.5.4,lang/java/mapred/src/main/java/org/apache/avro/mapred/AvroWrapper.java,0.161834,0.000000,0.000000,1.063860,0.000000,0.000000,0.000000,0.000000,0.000000,0.000000,0.000000,1.152381,1.160631,0.865482,1.444466,1.349198,0.390015,0.657895,0.286725,0.364825,0.628645,NO
1.5.4,lang/java/mapred/src/main/java/org/apache/avro/mapred/tether/TetherInputFormat.java,0.192956,0.000000,0.000000,0.000000,0.000000,0.000000,0.000000,0.000000,0.000000,0.000000,0.000000,0.497828,0.863787,1.246294,1.011510,1.099413,0.319103,0.657895,0.081921,0.104236,0.314322,NO
1.5.4,lang/java/mapred/src/main/java/org/apache/avro/mapred/tether/TetherKeySerialization.java,0.336117,0.000000,0.000000,0.000000,0.000000,0.000000,0.000000,0.000000,0.000000,0.000000,0.000000,0.583434,0.863787,1.095453,0.867829,0.921642,0.319103,0.328948,0.040961,0.156354,0.628645,NO
1.5.4,lang/java/mapred/src/main/java/org/apache/avro/mapred/tether/TetherKeyComparator.java,0.205405,0.000000,0.000000,0.000000,0.000000,0.000000,0.000000,0.000000,0.000000,0.000000,0.000000,0.504414,0.863787,0.947084,1.011510,1.045544,0.319103,0.328948,0.122882,0.104236,0.628645,NO
1.5.4,lang/java/mapred/src/main/java/org/apache/avro/mapred/tether/TetheredProcess.java,0.553971,0.000000,0.000000,0.000000,0.000000,0.000000,0.000000,0.000000,0.000000,0.000000,0.000000,0.620310,0.863787,0.931753,0.867829,0.952067,0.460926,0.657895,0.286725,0.312707,0.942967,YES
1.5.4,lang/java/mapred/src/main/java/org/apache/avro/mapred/tether/TetherOutputService.java,0.410810,0.000000,0.000000,0.000000,0.000000,0.000000,0.000000,0.000000,0.000000,0.000000,0.000000,0.510999,0.863787,1.279264,0.867829,0.962177,0.301375,0.328948,0.122882,0.364825,1.257289,NO
1.5.4,lang/java/mapred/src/main/java/org/apache/avro/mapred/tether/TetherRecordReader.java,0.311219,0.000000,0.000000,0.000000,0.000000,0.000000,0.000000,0.000000,0.000000,0.000000,0.000000,0.497828,0.863787,1.246294,1.011510,1.082303,0.319103,0.328948,0.081921,0.052118,0.314322,NO
1.5.4,lang/java/mapred/src/main/java/org/apache/avro/mapred/tether/TetherMapRunner.java,0.342341,0.000000,0.000000,0.000000,0.000000,0.000000,0.000000,0.000000,0.000000,0.000000,0.000000,0.474122,0.863787,1.780420,0.867829,0.970827,0.407743,0.657895,0.204803,0.208471,0.628645,NO
1.5.4,lang/java/mapred/src/main/java/org/apache/avro/mapred/tether/TetherPartitioner.java,0.186732,0.000000,0.000000,0.000000,0.000000,0.000000,0.000000,0.000000,0.000000,0.000000,0.000000,0.475439,0.863787,1.190243,0.867829,0.970827,0.319103,0.328948,0.081921,0.104236,0.314322,NO
1.5.4,lang/java/mapred/src/main/java/org/apache/avro/mapred/tether/TetherReducer.java,0.329893,0.000000,0.000000,0.000000,0.000000,0.000000,0.000000,0.000000,0.000000,0.000000,0.000000,0.474122,0.863787,1.780420,0.867829,0.970827,0.354559,0.328948,0.245764,0.156354,0.314322,NO
1.5.4,lang/java/mapred/src/main/java/org/apache/avro/mapred/tether/TetherData.java,0.074693,0.000000,0.000000,0.000000,0.000000,0.000000,0.000000,0.000000,0.000000,0.000000,0.000000,1.463194,1.160631,1.098914,1.695428,1.589500,0.407743,0.000000,0.000000,0.052118,0.314322,NO
1.5.4,lang/java/mapred/src/main/java/org/apache/avro/mapred/HadoopReducerBase.java,0.255200,0.000000,0.000000,0.000000,0.000000,0.000000,0.000000,0.000000,0.000000,0.000000,0.000000,0.493877,0.863787,1.236402,0.798863,0.850655,0.301375,0.328948,0.040961,0.416943,0.942967,NO
1.5.4,lang/java/mapred/src/main/java/org/apache/avro/mapred/AvroReducer.java,0.168058,0.000000,0.000000,0.000000,0.000000,0.000000,0.000000,0.000000,0.000000,0.000000,0.000000,0.517584,0.863787,0.971812,1.011510,0.922240,0.514110,0.328948,0.081921,0.104236,0.628645,NO
1.5.4,lang/java/mapred/src/main/java/org/apache/avro/mapred/AvroJob.java,0.715805,0.000000,0.000000,0.531930,0.000000,0.000000,0.000000,0.000000,0.000000,0.000000,0.000000,0.603189,0.863787,0.503353,1.011510,0.915841,0.850941,0.328948,0.245764,0.260589,0.628645,NO
1.5.4,lang/java/tools/src/main/java/org/apache/avro/tool/SpecificCompilerTool.java,0.529073,0.000000,0.000000,0.000000,0.000000,0.000000,0.000000,0.000000,0.000000,0.000000,0.000000,0.122482,0.195221,0.306628,0.432957,0.234491,0.567294,0.986843,0.368646,0.208471,1.257289,NO
1.5.4,lang/java/tools/src/main/java/org/apache/avro/tool/TetherTool.java,0.410810,0.000000,0.000000,0.531930,0.000000,0.000000,0.000000,0.000000,0.000000,0.000000,0.000000,0.023706,0.032091,0.089021,0.459777,0.507442,0.301375,0.328948,0.122882,0.104236,0.314322,YES
1.5.4,lang/java/tools/src/main/java/org/apache/avro/tool/RecodecTool.java,0.535297,0.000000,0.000000,0.000000,0.000000,0.000000,0.000000,0.000000,0.000000,0.000000,0.000000,0.431978,0.863787,1.622160,0.561311,0.627930,0.319103,0.657895,0.327685,0.312707,0.942967,NO
1.5.4,lang/java/tools/src/main/java/org/apache/avro/tool/RpcReceiveTool.java,0.865190,0.000000,0.000000,0.000000,0.000000,0.000000,0.000000,0.000000,0.000000,0.000000,0.000000,1.220865,1.160631,1.146145,1.185842,1.241709,0.407743,0.657895,0.368646,0.104236,0.628645,NO
1.5.4,lang/java/tools/src/main/java/org/apache/avro/tool/Util.java,0.485502,0.000000,0.000000,0.000000,0.000000,0.000000,0.000000,0.000000,0.000000,0.000000,0.000000,1.518509,1.160631,0.877275,1.695428,1.415560,0.620478,0.986843,0.245764,0.312707,0.942967,YES
1.5.4,lang/java/tools/src/main/java/org/apache/avro/tool/IdlTool.java,0.292546,0.000000,0.000000,0.000000,0.000000,0.000000,0.000000,0.000000,0.000000,0.000000,0.000000,1.172136,1.160631,1.257598,1.185842,1.212256,0.372287,0.328948,0.122882,0.208471,0.942967,NO
1.5.4,lang/java/tools/src/main/java/org/apache/avro/tool/BinaryFragmentToJsonTool.java,0.385912,0.000000,0.000000,0.000000,0.000000,0.000000,0.000000,0.000000,0.000000,0.000000,0.000000,1.155015,1.160631,1.445767,1.187757,1.265853,0.319103,0.328948,0.122882,0.104236,0.628645,YES
1.5.4,lang/java/tools/src/main/java/org/apache/avro/tool/InduceSchemaTool.java,0.304995,0.000000,0.000000,0.000000,0.000000,0.000000,0.000000,0.000000,0.000000,0.000000,0.000000,1.128675,1.160631,1.059597,1.264387,1.365923,0.354559,0.986843,0.204803,0.052118,0.314322,NO
1.5.4,lang/java/tools/src/main/java/org/apache/avro/tool/DataFileWriteTool.java,0.666010,0.000000,0.000000,0.000000,0.000000,0.000000,0.000000,0.000000,0.000000,0.000000,0.000000,1.106286,1.160631,1.186946,1.187757,1.122252,0.319103,0.657895,0.327685,0.156354,0.942967,NO
1.5.4,lang/java/tools/src/main/java/org/apache/avro/tool/Main.java,0.392136,0.000000,0.000000,0.531930,0.000000,0.000000,0.000000,0.000000,0.000000,0.000000,0.000000,1.295934,1.160631,0.572527,1.310365,1.328484,0.425470,0.657895,0.245764,0.052118,0.314322,NO
1.5.4,lang/java/tools/src/main/java/org/apache/avro/tool/JsonToBinaryFragmentTool.java,0.348566,0.000000,0.000000,0.531930,0.000000,0.000000,0.000000,0.000000,0.000000,0.000000,0.000000,1.127358,1.160631,1.411147,1.187757,1.194275,0.319103,0.328948,0.122882,0.104236,0.628645,NO
1.5.4,lang/java/tools/src/main/java/org/apache/avro/tool/FromTextTool.java,0.572644,0.000000,0.000000,0.000000,0.000000,0.000000,0.000000,0.000000,0.000000,0.000000,0.000000,1.078628,1.160631,1.157273,1.187757,0.967587,0.443198,1.644738,0.368646,0.052118,0.314322,YES
